LAMMPS (3 Mar 2020)
###
# Reference paper:
# K. Kremer and G. S. Grest
# Dynamics of entangled linear polymer melts: A molecular-dynamics simulation
# J Chem Phys 92, 5057 (1990)
###

###
# Box and units  (use LJ units and periodic boundaries)
###

units lj

atom_style angle #with stiffness

boundary        p p p

###
# Pair interactions require lists of neighbours to be calculated
###
neighbor 1.9 bin
neigh_modify every 1 delay 1 check yes

### Generate RESTART file, SPECIAL format, not a .txt file ###
### Useful if simulation crashes ###
restart 1000000 polymer.restart
#############################

#processors 2 1 1

### READ "start" data file ###
read_data lammps_input
  orthogonal box = (-50 -50 -50) to (50 50 50)
  1 by 1 by 1 MPI processor grid
  reading atoms ...
  400 atoms
  reading velocities ...
  400 velocities
  scanning bonds ...
  1 = max bonds/atom
  scanning angles ...
  1 = max angles/atom
  reading bonds ...
  398 bonds
  reading angles ...
  396 angles
  2 = max # of 1-2 neighbors
  2 = max # of 1-3 neighbors
  4 = max # of 1-4 neighbors
  6 = max # of special neighbors
  special bonds CPU = 0.000329667 secs
  read_data CPU = 0.00667434 secs
######################

### READ "REstart" data file ###
#read_restart DNAunzipping.restart
######################

### reset timestep ###
reset_timestep 0
######################

###
# Define groups (atom type 1 is group 'all')
###
#group all type *

###
# Dump configs - "simple dumpings"
###

###
# Dump configs + box coords
###
#dump   1   all   custom   10000   DNAunzipping.dump.*  id  x y z  ix iy iz
#dump_modify   1   format "%d %.5f %.5f %.5f %d %d %d"
dump   id all atom 1000 dump.DNAunzipping

###################################################################
# Stiffness term
#
# E = K * (1+cos(theta)), K>0
#
angle_style   cosine
angle_coeff   1 20.0
###################################################################

###################################################################
# Pair interaction between non-bonded atoms
#
#  soft potential, for PUSHING apart overlapping atoms
#  potential E=A*(1 + cos(pi*r/r_c))
#
#  1.12246 = 2^(1/6) is the cut-off r_c

pair_style     soft 1.12246152962189

#
#  pair_coeff for soft, specify 3:
#    * atom type interacting with
#    * atom type
#    * A
#

pair_coeff * * 100.0 1.12246152962189

###################################################################
# Pair interaction between bonded atoms
#
# Harmonic potential:
#
#  E= K * (R-R0)^2
#

bond_style   harmonic

#
# For style harmonic, specify:
#   * bond type
#   * K (energy/distance^2)
#   * R0 (distance)
#

bond_coeff   1   60.0   1.1

###################################################


###
# Set up fixes
###

fix 1 all   nve   ###NVE ensemble
fix 2 all   langevin   1.0 1.0   1.0   15   ###Langevin integrator Tstart Tstop 1/friction rndseed

##### Sample thermodynamic info  (temperature, energy, pressure, etc.) #####
thermo 10000
thermo_style   custom   step  temp  epair  emol  press pxx pyy pzz  vol
############################################################################

###
# set timestep of integrator
###
timestep 0.01 #0.012

###
# run integration for a number of steps
###
run 1000
Neighbor list info ...
  update every 1 steps, delay 1 steps, check yes
  max neighbors/atom: 2000, page size: 100000
  master list distance cutoff = 3.02246
  ghost atom cutoff = 3.02246
  binsize = 1.51123, bins = 67 67 67
  1 neighbor lists, perpetual/occasional/extra = 1 0 0
  (1) pair soft, perpetual
      attributes: half, newton on
      pair build: half/bin/newton
      stencil: half/bin/3d/newton
      bin: standard
WARNING: Communication cutoff 3.02246 is shorter than a bond length based estimate of 3.55. This may lead to errors. (src/comm.cpp:686)
Per MPI rank memory allocation (min/avg/max) = 7.641 | 7.641 | 7.641 Mbytes
Step Temp E_pair E_mol Press Pxx Pyy Pzz Volume 
       0            0    176.82657    20.864746  0.058863411  0.071728753  0.068804243  0.036057238      1000000 
    1000    1.0293545 2.8168624e-05    1.8289647 0.00026413085 0.00019539992 0.00032705652 0.00026993612      1000000 
Loop time of 0.0831269 on 1 procs for 1000 steps with 400 atoms

Performance: 10393743.140 tau/day, 12029.795 timesteps/s
97.5% CPU use with 1 MPI tasks x no OpenMP threads

MPI task timing breakdown:
Section |  min time  |  avg time  |  max time  |%varavg| %total
---------------------------------------------------------------
Pair    | 0.0060629  | 0.0060629  | 0.0060629  |   0.0 |  7.29
Bond    | 0.017252   | 0.017252   | 0.017252   |   0.0 | 20.75
Neigh   | 0.034929   | 0.034929   | 0.034929   |   0.0 | 42.02
Comm    | 0.00056589 | 0.00056589 | 0.00056589 |   0.0 |  0.68
Output  | 0.000474   | 0.000474   | 0.000474   |   0.0 |  0.57
Modify  | 0.022165   | 0.022165   | 0.022165   |   0.0 | 26.66
Other   |            | 0.001678   |            |       |  2.02

Nlocal:    400 ave 400 max 400 min
Histogram: 1 0 0 0 0 0 0 0 0 0
Nghost:    0 ave 0 max 0 min
Histogram: 1 0 0 0 0 0 0 0 0 0
Neighs:    120 ave 120 max 120 min
Histogram: 1 0 0 0 0 0 0 0 0 0

Total # of neighbors = 120
Ave neighs/atom = 0.3
Ave special neighs/atom = 5.94
Neighbor list builds = 68
Dangerous builds = 0

###################################################################
# Pair interaction between non-bonded atoms
#
#  Lennard-Jones 12-6 potential with cutoff:
#  potential E=4epsilon[ (sigma/r)^12 - (sigma/r)^6]  for r<r_cut
#
#  1.12246 = 2^(1/6) is the minimum of the potential

pair_style      lj/cut 1.12246152962189

#
#  pair_modify shift yes adds a constant to the potential such
#  that E(r_cut)=0. Forces remains unchanged.
#

pair_modify     shift yes

#
#  pair_coeff for lj/cut, specify 4:
#    * atom type interacting with
#    * atom type
#    * epsilon (energy units)
#    * sigma (distance units)
#

pair_coeff      * * 1.0 1.0 1.12246152962189

include pair.unzipping.equilibration
 pair_coeff            1           1   3.0000000000000000        1.0000000000000000        2.5000000000000000
 pair_coeff            2           2   3.0000000000000000        1.0000000000000000        2.5000000000000000
 pair_coeff            3           3   3.0000000000000000        1.0000000000000000        2.5000000000000000
 pair_coeff            4           4   3.0000000000000000        1.0000000000000000        2.5000000000000000
 pair_coeff            5           5   3.0000000000000000        1.0000000000000000        2.5000000000000000
 pair_coeff            6           6   3.0000000000000000        1.0000000000000000        2.5000000000000000
 pair_coeff            7           7   3.0000000000000000        1.0000000000000000        2.5000000000000000
 pair_coeff            8           8   3.0000000000000000        1.0000000000000000        2.5000000000000000
 pair_coeff            9           9   3.0000000000000000        1.0000000000000000        2.5000000000000000
 pair_coeff           10          10   3.0000000000000000        1.0000000000000000        2.5000000000000000
 pair_coeff           11          11   3.0000000000000000        1.0000000000000000        2.5000000000000000
 pair_coeff           12          12   3.0000000000000000        1.0000000000000000        2.5000000000000000
 pair_coeff           13          13   3.0000000000000000        1.0000000000000000        2.5000000000000000
 pair_coeff           14          14   3.0000000000000000        1.0000000000000000        2.5000000000000000
 pair_coeff           15          15   3.0000000000000000        1.0000000000000000        2.5000000000000000
 pair_coeff           16          16   3.0000000000000000        1.0000000000000000        2.5000000000000000
 pair_coeff           17          17   3.0000000000000000        1.0000000000000000        2.5000000000000000
 pair_coeff           18          18   3.0000000000000000        1.0000000000000000        2.5000000000000000
 pair_coeff           19          19   3.0000000000000000        1.0000000000000000        2.5000000000000000
 pair_coeff           20          20   3.0000000000000000        1.0000000000000000        2.5000000000000000
 pair_coeff           21          21   3.0000000000000000        1.0000000000000000        2.5000000000000000
 pair_coeff           22          22   3.0000000000000000        1.0000000000000000        2.5000000000000000
 pair_coeff           23          23   3.0000000000000000        1.0000000000000000        2.5000000000000000
 pair_coeff           24          24   3.0000000000000000        1.0000000000000000        2.5000000000000000
 pair_coeff           25          25   3.0000000000000000        1.0000000000000000        2.5000000000000000
 pair_coeff           26          26   3.0000000000000000        1.0000000000000000        2.5000000000000000
 pair_coeff           27          27   3.0000000000000000        1.0000000000000000        2.5000000000000000
 pair_coeff           28          28   3.0000000000000000        1.0000000000000000        2.5000000000000000
 pair_coeff           29          29   3.0000000000000000        1.0000000000000000        2.5000000000000000
 pair_coeff           30          30   3.0000000000000000        1.0000000000000000        2.5000000000000000
 pair_coeff           31          31   3.0000000000000000        1.0000000000000000        2.5000000000000000
 pair_coeff           32          32   3.0000000000000000        1.0000000000000000        2.5000000000000000
 pair_coeff           33          33   3.0000000000000000        1.0000000000000000        2.5000000000000000
 pair_coeff           34          34   3.0000000000000000        1.0000000000000000        2.5000000000000000
 pair_coeff           35          35   3.0000000000000000        1.0000000000000000        2.5000000000000000
 pair_coeff           36          36   3.0000000000000000        1.0000000000000000        2.5000000000000000
 pair_coeff           37          37   3.0000000000000000        1.0000000000000000        2.5000000000000000
 pair_coeff           38          38   3.0000000000000000        1.0000000000000000        2.5000000000000000
 pair_coeff           39          39   3.0000000000000000        1.0000000000000000        2.5000000000000000
 pair_coeff           40          40   3.0000000000000000        1.0000000000000000        2.5000000000000000
 pair_coeff           41          41   3.0000000000000000        1.0000000000000000        2.5000000000000000
 pair_coeff           42          42   3.0000000000000000        1.0000000000000000        2.5000000000000000
 pair_coeff           43          43   3.0000000000000000        1.0000000000000000        2.5000000000000000
 pair_coeff           44          44   3.0000000000000000        1.0000000000000000        2.5000000000000000
 pair_coeff           45          45   3.0000000000000000        1.0000000000000000        2.5000000000000000
 pair_coeff           46          46   3.0000000000000000        1.0000000000000000        2.5000000000000000
 pair_coeff           47          47   3.0000000000000000        1.0000000000000000        2.5000000000000000
 pair_coeff           48          48   3.0000000000000000        1.0000000000000000        2.5000000000000000
 pair_coeff           49          49   3.0000000000000000        1.0000000000000000        2.5000000000000000
 pair_coeff           50          50   3.0000000000000000        1.0000000000000000        2.5000000000000000
 pair_coeff           51          51   3.0000000000000000        1.0000000000000000        2.5000000000000000
 pair_coeff           52          52   3.0000000000000000        1.0000000000000000        2.5000000000000000
 pair_coeff           53          53   3.0000000000000000        1.0000000000000000        2.5000000000000000
 pair_coeff           54          54   3.0000000000000000        1.0000000000000000        2.5000000000000000
 pair_coeff           55          55   3.0000000000000000        1.0000000000000000        2.5000000000000000
 pair_coeff           56          56   3.0000000000000000        1.0000000000000000        2.5000000000000000
 pair_coeff           57          57   3.0000000000000000        1.0000000000000000        2.5000000000000000
 pair_coeff           58          58   3.0000000000000000        1.0000000000000000        2.5000000000000000
 pair_coeff           59          59   3.0000000000000000        1.0000000000000000        2.5000000000000000
 pair_coeff           60          60   3.0000000000000000        1.0000000000000000        2.5000000000000000
 pair_coeff           61          61   3.0000000000000000        1.0000000000000000        2.5000000000000000
 pair_coeff           62          62   3.0000000000000000        1.0000000000000000        2.5000000000000000
 pair_coeff           63          63   3.0000000000000000        1.0000000000000000        2.5000000000000000
 pair_coeff           64          64   3.0000000000000000        1.0000000000000000        2.5000000000000000
 pair_coeff           65          65   3.0000000000000000        1.0000000000000000        2.5000000000000000
 pair_coeff           66          66   3.0000000000000000        1.0000000000000000        2.5000000000000000
 pair_coeff           67          67   3.0000000000000000        1.0000000000000000        2.5000000000000000
 pair_coeff           68          68   3.0000000000000000        1.0000000000000000        2.5000000000000000
 pair_coeff           69          69   3.0000000000000000        1.0000000000000000        2.5000000000000000
 pair_coeff           70          70   3.0000000000000000        1.0000000000000000        2.5000000000000000
 pair_coeff           71          71   3.0000000000000000        1.0000000000000000        2.5000000000000000
 pair_coeff           72          72   3.0000000000000000        1.0000000000000000        2.5000000000000000
 pair_coeff           73          73   3.0000000000000000        1.0000000000000000        2.5000000000000000
 pair_coeff           74          74   3.0000000000000000        1.0000000000000000        2.5000000000000000
 pair_coeff           75          75   3.0000000000000000        1.0000000000000000        2.5000000000000000
 pair_coeff           76          76   3.0000000000000000        1.0000000000000000        2.5000000000000000
 pair_coeff           77          77   3.0000000000000000        1.0000000000000000        2.5000000000000000
 pair_coeff           78          78   3.0000000000000000        1.0000000000000000        2.5000000000000000
 pair_coeff           79          79   3.0000000000000000        1.0000000000000000        2.5000000000000000
 pair_coeff           80          80   3.0000000000000000        1.0000000000000000        2.5000000000000000
 pair_coeff           81          81   3.0000000000000000        1.0000000000000000        2.5000000000000000
 pair_coeff           82          82   3.0000000000000000        1.0000000000000000        2.5000000000000000
 pair_coeff           83          83   3.0000000000000000        1.0000000000000000        2.5000000000000000
 pair_coeff           84          84   3.0000000000000000        1.0000000000000000        2.5000000000000000
 pair_coeff           85          85   3.0000000000000000        1.0000000000000000        2.5000000000000000
 pair_coeff           86          86   3.0000000000000000        1.0000000000000000        2.5000000000000000
 pair_coeff           87          87   3.0000000000000000        1.0000000000000000        2.5000000000000000
 pair_coeff           88          88   3.0000000000000000        1.0000000000000000        2.5000000000000000
 pair_coeff           89          89   3.0000000000000000        1.0000000000000000        2.5000000000000000
 pair_coeff           90          90   3.0000000000000000        1.0000000000000000        2.5000000000000000
 pair_coeff           91          91   3.0000000000000000        1.0000000000000000        2.5000000000000000
 pair_coeff           92          92   3.0000000000000000        1.0000000000000000        2.5000000000000000
 pair_coeff           93          93   3.0000000000000000        1.0000000000000000        2.5000000000000000
 pair_coeff           94          94   3.0000000000000000        1.0000000000000000        2.5000000000000000
 pair_coeff           95          95   3.0000000000000000        1.0000000000000000        2.5000000000000000
 pair_coeff           96          96   3.0000000000000000        1.0000000000000000        2.5000000000000000
 pair_coeff           97          97   3.0000000000000000        1.0000000000000000        2.5000000000000000
 pair_coeff           98          98   3.0000000000000000        1.0000000000000000        2.5000000000000000
 pair_coeff           99          99   3.0000000000000000        1.0000000000000000        2.5000000000000000
 pair_coeff          100         100   3.0000000000000000        1.0000000000000000        2.5000000000000000
 pair_coeff          101         101   3.0000000000000000        1.0000000000000000        2.5000000000000000
 pair_coeff          102         102   3.0000000000000000        1.0000000000000000        2.5000000000000000
 pair_coeff          103         103   3.0000000000000000        1.0000000000000000        2.5000000000000000
 pair_coeff          104         104   3.0000000000000000        1.0000000000000000        2.5000000000000000
 pair_coeff          105         105   3.0000000000000000        1.0000000000000000        2.5000000000000000
 pair_coeff          106         106   3.0000000000000000        1.0000000000000000        2.5000000000000000
 pair_coeff          107         107   3.0000000000000000        1.0000000000000000        2.5000000000000000
 pair_coeff          108         108   3.0000000000000000        1.0000000000000000        2.5000000000000000
 pair_coeff          109         109   3.0000000000000000        1.0000000000000000        2.5000000000000000
 pair_coeff          110         110   3.0000000000000000        1.0000000000000000        2.5000000000000000
 pair_coeff          111         111   3.0000000000000000        1.0000000000000000        2.5000000000000000
 pair_coeff          112         112   3.0000000000000000        1.0000000000000000        2.5000000000000000
 pair_coeff          113         113   3.0000000000000000        1.0000000000000000        2.5000000000000000
 pair_coeff          114         114   3.0000000000000000        1.0000000000000000        2.5000000000000000
 pair_coeff          115         115   3.0000000000000000        1.0000000000000000        2.5000000000000000
 pair_coeff          116         116   3.0000000000000000        1.0000000000000000        2.5000000000000000
 pair_coeff          117         117   3.0000000000000000        1.0000000000000000        2.5000000000000000
 pair_coeff          118         118   3.0000000000000000        1.0000000000000000        2.5000000000000000
 pair_coeff          119         119   3.0000000000000000        1.0000000000000000        2.5000000000000000
 pair_coeff          120         120   3.0000000000000000        1.0000000000000000        2.5000000000000000
 pair_coeff          121         121   3.0000000000000000        1.0000000000000000        2.5000000000000000
 pair_coeff          122         122   3.0000000000000000        1.0000000000000000        2.5000000000000000
 pair_coeff          123         123   3.0000000000000000        1.0000000000000000        2.5000000000000000
 pair_coeff          124         124   3.0000000000000000        1.0000000000000000        2.5000000000000000
 pair_coeff          125         125   3.0000000000000000        1.0000000000000000        2.5000000000000000
 pair_coeff          126         126   3.0000000000000000        1.0000000000000000        2.5000000000000000
 pair_coeff          127         127   3.0000000000000000        1.0000000000000000        2.5000000000000000
 pair_coeff          128         128   3.0000000000000000        1.0000000000000000        2.5000000000000000
 pair_coeff          129         129   3.0000000000000000        1.0000000000000000        2.5000000000000000
 pair_coeff          130         130   3.0000000000000000        1.0000000000000000        2.5000000000000000
 pair_coeff          131         131   3.0000000000000000        1.0000000000000000        2.5000000000000000
 pair_coeff          132         132   3.0000000000000000        1.0000000000000000        2.5000000000000000
 pair_coeff          133         133   3.0000000000000000        1.0000000000000000        2.5000000000000000
 pair_coeff          134         134   3.0000000000000000        1.0000000000000000        2.5000000000000000
 pair_coeff          135         135   3.0000000000000000        1.0000000000000000        2.5000000000000000
 pair_coeff          136         136   3.0000000000000000        1.0000000000000000        2.5000000000000000
 pair_coeff          137         137   3.0000000000000000        1.0000000000000000        2.5000000000000000
 pair_coeff          138         138   3.0000000000000000        1.0000000000000000        2.5000000000000000
 pair_coeff          139         139   3.0000000000000000        1.0000000000000000        2.5000000000000000
 pair_coeff          140         140   3.0000000000000000        1.0000000000000000        2.5000000000000000
 pair_coeff          141         141   3.0000000000000000        1.0000000000000000        2.5000000000000000
 pair_coeff          142         142   3.0000000000000000        1.0000000000000000        2.5000000000000000
 pair_coeff          143         143   3.0000000000000000        1.0000000000000000        2.5000000000000000
 pair_coeff          144         144   3.0000000000000000        1.0000000000000000        2.5000000000000000
 pair_coeff          145         145   3.0000000000000000        1.0000000000000000        2.5000000000000000
 pair_coeff          146         146   3.0000000000000000        1.0000000000000000        2.5000000000000000
 pair_coeff          147         147   3.0000000000000000        1.0000000000000000        2.5000000000000000
 pair_coeff          148         148   3.0000000000000000        1.0000000000000000        2.5000000000000000
 pair_coeff          149         149   3.0000000000000000        1.0000000000000000        2.5000000000000000
 pair_coeff          150         150   3.0000000000000000        1.0000000000000000        2.5000000000000000
 pair_coeff          151         151   3.0000000000000000        1.0000000000000000        2.5000000000000000
 pair_coeff          152         152   3.0000000000000000        1.0000000000000000        2.5000000000000000
 pair_coeff          153         153   3.0000000000000000        1.0000000000000000        2.5000000000000000
 pair_coeff          154         154   3.0000000000000000        1.0000000000000000        2.5000000000000000
 pair_coeff          155         155   3.0000000000000000        1.0000000000000000        2.5000000000000000
 pair_coeff          156         156   3.0000000000000000        1.0000000000000000        2.5000000000000000
 pair_coeff          157         157   3.0000000000000000        1.0000000000000000        2.5000000000000000
 pair_coeff          158         158   3.0000000000000000        1.0000000000000000        2.5000000000000000
 pair_coeff          159         159   3.0000000000000000        1.0000000000000000        2.5000000000000000
 pair_coeff          160         160   3.0000000000000000        1.0000000000000000        2.5000000000000000
 pair_coeff          161         161   3.0000000000000000        1.0000000000000000        2.5000000000000000
 pair_coeff          162         162   3.0000000000000000        1.0000000000000000        2.5000000000000000
 pair_coeff          163         163   3.0000000000000000        1.0000000000000000        2.5000000000000000
 pair_coeff          164         164   3.0000000000000000        1.0000000000000000        2.5000000000000000
 pair_coeff          165         165   3.0000000000000000        1.0000000000000000        2.5000000000000000
 pair_coeff          166         166   3.0000000000000000        1.0000000000000000        2.5000000000000000
 pair_coeff          167         167   3.0000000000000000        1.0000000000000000        2.5000000000000000
 pair_coeff          168         168   3.0000000000000000        1.0000000000000000        2.5000000000000000
 pair_coeff          169         169   3.0000000000000000        1.0000000000000000        2.5000000000000000
 pair_coeff          170         170   3.0000000000000000        1.0000000000000000        2.5000000000000000
 pair_coeff          171         171   3.0000000000000000        1.0000000000000000        2.5000000000000000
 pair_coeff          172         172   3.0000000000000000        1.0000000000000000        2.5000000000000000
 pair_coeff          173         173   3.0000000000000000        1.0000000000000000        2.5000000000000000
 pair_coeff          174         174   3.0000000000000000        1.0000000000000000        2.5000000000000000
 pair_coeff          175         175   3.0000000000000000        1.0000000000000000        2.5000000000000000
 pair_coeff          176         176   3.0000000000000000        1.0000000000000000        2.5000000000000000
 pair_coeff          177         177   3.0000000000000000        1.0000000000000000        2.5000000000000000
 pair_coeff          178         178   3.0000000000000000        1.0000000000000000        2.5000000000000000
 pair_coeff          179         179   3.0000000000000000        1.0000000000000000        2.5000000000000000
 pair_coeff          180         180   3.0000000000000000        1.0000000000000000        2.5000000000000000
 pair_coeff          181         181   3.0000000000000000        1.0000000000000000        2.5000000000000000
 pair_coeff          182         182   3.0000000000000000        1.0000000000000000        2.5000000000000000
 pair_coeff          183         183   3.0000000000000000        1.0000000000000000        2.5000000000000000
 pair_coeff          184         184   3.0000000000000000        1.0000000000000000        2.5000000000000000
 pair_coeff          185         185   3.0000000000000000        1.0000000000000000        2.5000000000000000
 pair_coeff          186         186   3.0000000000000000        1.0000000000000000        2.5000000000000000
 pair_coeff          187         187   3.0000000000000000        1.0000000000000000        2.5000000000000000
 pair_coeff          188         188   3.0000000000000000        1.0000000000000000        2.5000000000000000
 pair_coeff          189         189   3.0000000000000000        1.0000000000000000        2.5000000000000000
 pair_coeff          190         190   3.0000000000000000        1.0000000000000000        2.5000000000000000
 pair_coeff          191         191   3.0000000000000000        1.0000000000000000        2.5000000000000000
 pair_coeff          192         192   3.0000000000000000        1.0000000000000000        2.5000000000000000
 pair_coeff          193         193   3.0000000000000000        1.0000000000000000        2.5000000000000000
 pair_coeff          194         194   3.0000000000000000        1.0000000000000000        2.5000000000000000
 pair_coeff          195         195   3.0000000000000000        1.0000000000000000        2.5000000000000000
 pair_coeff          196         196   3.0000000000000000        1.0000000000000000        2.5000000000000000
 pair_coeff          197         197   3.0000000000000000        1.0000000000000000        2.5000000000000000
 pair_coeff          198         198   3.0000000000000000        1.0000000000000000        2.5000000000000000
 pair_coeff          199         199   3.0000000000000000        1.0000000000000000        2.5000000000000000
 pair_coeff          200         200   3.0000000000000000        1.0000000000000000        2.5000000000000000

###################################################################
# Pair interaction between bonded atoms
#
# Fene potential + Lennard Jones 12-6:
#
#  E= - 0.5 K R0^2 ln[ 1- (r/R0)^2]
#     + 4epsilon[ (sigma/r)^12 - (sigma/r)^6] + epsilon
#

bond_style   fene

#
# For style fene, specify:
#   * bond type
#   * K (energy/distance^2)
#   * R0 (distance)
#   * epsilon (energy)  (LJ component)
#   * sigma (distance)  (LJ component)
#

special_bonds fene #<=== I M P O R T A N T (new command)
  2 = max # of 1-2 neighbors
  6 = max # of special neighbors
  special bonds CPU = 0.000113599 secs

bond_coeff   1   30.0   1.6   1.0   1.0

###################################################

###
# Set up fixes
###

fix 1 all   nve   ###NVE ensemble
fix 2 all   langevin   1.0 1.0   1.0  69   ###Langevin integrator Tstart Tstop 1/friction rndseed

##### Sample thermodynamic info  (temperature, energy, pressure, etc.) #####
thermo 10000
thermo_style   custom   step  temp  epair  emol  press pxx pyy pzz  vol
############################################################################

###
# set timestep of integrator
###
timestep 0.01

###
# run integration for a number of steps
###
run 1000000
Neighbor list info ...
  update every 1 steps, delay 1 steps, check yes
  max neighbors/atom: 2000, page size: 100000
  master list distance cutoff = 4.4
  ghost atom cutoff = 4.4
  binsize = 2.2, bins = 46 46 46
  1 neighbor lists, perpetual/occasional/extra = 1 0 0
  (1) pair lj/cut, perpetual
      attributes: half, newton on
      pair build: half/bin/newton
      stencil: half/bin/3d/newton
      bin: standard
Per MPI rank memory allocation (min/avg/max) = 6.723 | 6.723 | 6.723 Mbytes
Step Temp E_pair E_mol Press Pxx Pyy Pzz Volume 
    1000    1.0293545 2.1256024e-06     27.09821 -0.0078357705 -0.0083285011 -0.0089448806 -0.0062339296      1000000 
   10000   0.97885636 -0.098667195     21.03863 0.00015612521 0.00027672058 0.0003167994 -0.00012514436      1000000 
   20000   0.91327418  -0.13776065    21.069402 -0.00028584015 -0.00036951139 -0.00029372327 -0.0001942858      1000000 
   30000   0.93637384  -0.14561059    21.015244 -0.00011201583 -0.00017229386 -0.00015992402 -3.8296281e-06      1000000 
   40000    1.0000504  -0.14984734    21.054868 -0.00026988796 -8.262765e-05 -0.00057469959 -0.00015233663      1000000 
   50000   0.94833534  -0.21175364    21.054418 -0.00028881759 -0.00024758307 -0.00014504548 -0.00047382421      1000000 
   60000   0.98460195  -0.23180746    21.017679 0.00019004514 0.00037780492 0.00029453525 -0.00010220475      1000000 
   70000   0.98306315  -0.26771493     21.00246 -0.00032289069 -0.00034259355 -0.000131805 -0.0004942735      1000000 
   80000    1.0033298  -0.31498865    21.002957 8.6939337e-05 8.3053002e-05 0.00035840728 -0.00018064227      1000000 
   90000   0.94714632  -0.41997026    20.918152 3.2674704e-05 -2.638181e-05 7.5054299e-05 4.9351624e-05      1000000 
  100000   0.98777481  -0.44600532    20.984454 0.00057581642 0.0005265212 0.00051637367 0.00068455439      1000000 
  110000   0.93776337  -0.40405615    20.969012 0.00031073701 0.00066719319 0.00015657546 0.00010844239      1000000 
  120000   0.93744985  -0.48623887     21.05939 -0.00019794742 -0.00029278517  1.68485e-05 -0.0003179056      1000000 
  130000   0.97533474  -0.50074798    20.933292 -0.00029976868 -0.00055036623 -0.00047426224 0.00012532243      1000000 
  140000   0.99195237  -0.53494435    20.930173 8.0092777e-05 0.00056594934 -0.00023165372 -9.401729e-05      1000000 
  150000    1.0040327  -0.53418168    20.829608 -4.5688884e-05 -0.00012670725 3.4444061e-05 -4.4803463e-05      1000000 
  160000    1.1185005   -0.5734356    20.963611 -0.00013591431 5.5561113e-06 -0.00011849636 -0.00029480267      1000000 
  170000    1.0313579  -0.57851723    21.002183 -0.0002311805 -0.00012602669 -0.00052002768 -4.7487142e-05      1000000 
  180000    1.0590914  -0.67745071    21.077628 -6.8474956e-05 -0.00026850854 -2.0396203e-05 8.347988e-05      1000000 
  190000   0.93764818  -0.68382685    20.921157 -7.0623835e-05 0.00026656164 -0.00033512615 -0.000143307      1000000 
  200000    1.0227069  -0.65151439    20.883626 -0.00017212836 -0.0003552316 0.00031443957 -0.00047559306      1000000 
  210000    1.0421322   -0.6842023    20.923738 -3.9896906e-05 0.00018937272 -0.0005244427 0.00021537926      1000000 
  220000   0.99695436  -0.71745288    20.872037 5.0741712e-05 4.6802137e-05  3.97917e-06 0.00010144383      1000000 
  230000    1.0089724  -0.71898244    20.941343 -0.00011466007 -3.2716024e-05 -7.90314e-05 -0.00023223278      1000000 
  240000   0.98750274  -0.71895261    20.832557 -0.00025263227 -0.00024469879 -0.00031532319 -0.00019787484      1000000 
  250000    0.9971343  -0.80477488    20.963781 -5.6713705e-05 -0.0005531297 0.00026013438 0.0001228542      1000000 
  260000    1.0284648  -0.75662258    20.980059 0.00017166853 0.00020254111 0.00032031219 -7.8477246e-06      1000000 
  270000    1.0149481  -0.81625203     20.97314 0.00033680456 0.00038933449 0.00033454982 0.00028652937      1000000 
  280000    1.0568774  -0.84184174    20.878839 -0.0001080479 -0.000331532 1.0806489e-05 -3.4181958e-06      1000000 
  290000    1.0376267  -0.82345329    20.878709 -3.7156679e-05 -0.0004165835 0.00033206997 -2.6956511e-05      1000000 
  300000   0.95644271  -0.86365195     20.88435 -0.00026158454 -0.0002725498 -0.00045597923 -5.6224585e-05      1000000 
  310000     1.005502  -0.88465256    20.953643 -0.00013767496 -0.00012592937 -7.6067449e-05 -0.00021102806      1000000 
  320000    1.0044493  -0.85981356    20.785635 0.00026228438 0.00045500362 -3.8566045e-05 0.00037041557      1000000 
  330000   0.91539285  -0.84901803    20.954508 -7.0287087e-05 -0.00015844596 -2.8643472e-05 -2.3771832e-05      1000000 
  340000   0.97575503  -0.90673456    20.844016 4.7054036e-05 -1.2516344e-05 0.00030833343 -0.00015465498      1000000 
  350000   0.97272096   -0.9674144    20.935357 5.618842e-05 0.00017330152 -0.00026261059 0.00025787433      1000000 
  360000   0.98429511  -0.99602721    20.862817 -2.9029117e-05 -3.9738511e-05 0.00010374349 -0.00015109233      1000000 
  370000    1.0031293   -1.0036114     20.82566 5.9067657e-05 1.3702255e-05 -2.29561e-05 0.00018645682      1000000 
  380000   0.96614606   -1.0199922    20.723164 -5.8576025e-05 0.00034900843 -0.00023163108 -0.00029310543      1000000 
  390000    1.0416277   -1.0623703    20.818736 -0.00015669196 -2.8828941e-05 -0.00030758142 -0.00013366552      1000000 
  400000   0.96580323   -1.0073843    20.967135 -0.00026807212 5.2173863e-05 -0.00050878524 -0.00034760499      1000000 
  410000    1.0310131   -1.0828033    20.853426 -0.00029348299 -0.00033445663 -0.00017139507 -0.00037459726      1000000 
  420000   0.95524388   -1.0468231    20.886802 -0.00029899927 -0.00043546037 -0.00029215155 -0.00016938589      1000000 
  430000   0.97103063    -1.111013    20.941126 -9.0073797e-05 -3.2638886e-05 -0.00022140884 -1.6173665e-05      1000000 
  440000   0.96405971   -1.1260331    20.792741 1.3286232e-05 -6.139075e-05 5.6296689e-05 4.4952758e-05      1000000 
  450000   0.94669229   -1.1220796    20.900643 -0.00015674155 -0.0002263456 -0.00016662983 -7.7249221e-05      1000000 
  460000    1.0024767   -1.1958551    20.808897 0.00011439822 8.8023963e-05 0.00050511928 -0.0002499486      1000000 
  470000    1.0268286   -1.2287462    20.829958 0.00022682204 7.0428708e-05 0.00039384498 0.00021619242      1000000 
  480000   0.99423544   -1.2441271     20.84187 -0.00026804358 -7.4674595e-05 -0.0002005293 -0.00052892686      1000000 
  490000   0.94975933   -1.1906255    20.801185 7.6769657e-05 8.9488527e-05 -3.0094723e-05 0.00017091517      1000000 
  500000    1.0333956   -1.2401374     20.72977 0.00032108161 0.00048729235 0.00023893995 0.00023701252      1000000 
  510000    1.0529481   -1.2494252    20.766101 0.00021205748 0.00045646251 0.00027986587 -0.00010015594      1000000 
  520000    1.0147819   -1.2663392    20.760075 0.00022241626 0.00012078564 0.00018852082 0.00035794231      1000000 
  530000    1.0382374   -1.1916525    20.805115 0.00014632069 9.4364982e-05 0.00014238309 0.00020221401      1000000 
  540000    1.0358738   -1.2455644    20.796644 0.00027713818 0.00026744182 0.00051303419 5.0938529e-05      1000000 
  550000    1.0181158   -1.2136348    20.857447 -0.00017372825 8.1259136e-06 -0.00019812447 -0.0003311862      1000000 
  560000   0.99855753   -1.2668269    20.837219 -0.00028250472 -0.00041262436 -9.378417e-05 -0.00034110563      1000000 
  570000   0.95236429   -1.2913428    20.837517 5.6765043e-05 0.00013295192 -2.4197694e-06 3.9762974e-05      1000000 
  580000   0.97066239   -1.2476622    20.855936 -0.00017497471 -0.00025972258 -0.0004445601 0.00017935856      1000000 
  590000   0.98811396   -1.2434911    20.793974 -0.00017286245 -0.00023254608 -0.00029569529 9.6540289e-06      1000000 
  600000    1.0195608    -1.212538    20.860808 -0.0001308861 -0.00043581706 -0.0001004685 0.00014362726      1000000 
  610000    1.0132713   -1.2462717    20.780127 0.00017757282 0.00043014857 -8.5934509e-05 0.0001885044      1000000 
  620000   0.95977581   -1.2342564    20.822776 -8.8161667e-05 0.00012901938 -0.00011570817 -0.00027779622      1000000 
  630000   0.96728524   -1.2109095     20.71643 0.00023565953 0.00060048546 -2.1291403e-05 0.00012778455      1000000 
  640000    1.0577458   -1.2517602     20.76809 -3.2219817e-05 0.00023820363 -9.2913628e-05 -0.00024194946      1000000 
  650000   0.95667316   -1.1735099    20.760275 0.00020386307 8.2437822e-05 0.00042338116 0.00010577022      1000000 
  660000    1.0194574   -1.2456375    20.818742 -4.8699001e-05 2.371702e-06 3.1535136e-05 -0.00018000384      1000000 
  670000   0.99853989   -1.2097352    20.789284 -1.1390862e-07 6.7944383e-05 -0.00013020789 6.1921784e-05      1000000 
  680000    0.9476265    -1.231444    20.795468 0.0002159392 0.00043301451 0.00031879631 -0.00010399322      1000000 
  690000   0.99467268   -1.2452985    20.754757 0.00014051847 -1.2116259e-05 0.00026405986 0.00016961182      1000000 
  700000    1.0751322   -1.2094654    20.764998 -0.00018702903 -0.00013402767 -0.00031685952 -0.0001101999      1000000 
  710000    1.0253456   -1.1862284    20.791752 7.9220368e-05 -0.00025995704 0.00042836409 6.9254056e-05      1000000 
  720000   0.98732876   -1.2534163    20.794264 0.00040992701 0.00045886898 0.00055684742 0.00021406464      1000000 
  730000   0.96782607   -1.2567355    20.817694 -3.7700622e-05 0.00010425874 -0.00024473051 2.7369897e-05      1000000 
  740000    1.0092133   -1.2478658    20.832471 0.00034150725 0.00050176737 0.00043749824 8.5256137e-05      1000000 
  750000    1.0255013   -1.2137047    20.854893 -1.2969926e-05 -3.0093482e-05 -8.9189626e-05 8.0373329e-05      1000000 
  760000     0.991528   -1.2386678    20.816575 2.7295172e-05 0.00011098384 0.0003150129 -0.00034411122      1000000 
  770000     1.032713   -1.2054086    20.691291 0.00010574677 0.00027484305 -2.0398921e-05 6.279618e-05      1000000 
  780000   0.97340612    -1.261976    20.710046 -0.00010902254 -0.00020158849 -0.00010191303 -2.3566111e-05      1000000 
  790000    1.0368159    -1.198203     20.73272 -0.00012946673 -0.00035105539 -5.7492037e-05 2.0147228e-05      1000000 
  800000    1.0356976   -1.1844497    20.869351 -2.8989894e-05 -7.6706935e-05 7.0575832e-05 -8.0838578e-05      1000000 
  810000    1.1178645   -1.2400777     20.78316 0.00012844396 -4.5059915e-05 0.00025102337 0.00017936843      1000000 
  820000   0.93019083     -1.22634    20.709717 -3.7131943e-05 -8.718921e-05 0.00025575198 -0.0002799586      1000000 
  830000   0.99173639   -1.2521455    20.789555 -0.00020225966 -0.00022371068 -0.00014460919 -0.00023845912      1000000 
  840000   0.98670696   -1.2410288    20.817474 1.4028061e-05 0.00015715954 8.8503753e-05 -0.00020357911      1000000 
  850000    1.0205833     -1.24091    20.855874 0.00017074035 8.1686671e-05 0.00039613242 3.440196e-05      1000000 
  860000   0.97389985   -1.2238548    20.819859 -0.00011033353 -0.00013784077 -0.00011454313 -7.8616705e-05      1000000 
  870000   0.99138032   -1.2201829    20.708355 0.00044673349 0.00034322483 0.00081532921 0.00018164641      1000000 
  880000    1.0693254    -1.230586    20.761483 -0.0005120982 -0.00039421011 -0.00076245269 -0.0003796318      1000000 
  890000    1.0020796   -1.2207642    20.824045 -9.3427176e-05 -0.00033705097 2.1689921e-06 5.4600447e-05      1000000 
  900000   0.98730821   -1.2412787    20.862764 5.738029e-05 0.00023231934 1.4454333e-05 -7.4632802e-05      1000000 
  910000    1.0133391   -1.2350256    20.777969 2.549455e-05 -0.00015897495 -9.0334561e-05 0.00032579317      1000000 
  920000    1.0743994   -1.2528045    20.772901 0.00011020386 -3.0943336e-05 0.00016290357 0.00019865136      1000000 
  930000   0.96091919   -1.2413886    20.836662 0.00025502034 0.00012611778 0.0005113736 0.00012756966      1000000 
  940000    1.0359082   -1.2130887    20.774499 -0.00021733266 -0.000104954 -0.00033685388 -0.00021019011      1000000 
  950000   0.95402256   -1.2469416    20.808921 0.00017851034 0.00043977823 -4.3441375e-05 0.00013919415      1000000 
  960000   0.93056588   -1.2173311    20.812499 -6.7460356e-05 -0.00012660263 5.272718e-05 -0.00012850562      1000000 
  970000    1.0410231   -1.2028366    20.805992 0.00018253766 0.00017460702 0.00027458387  9.84221e-05      1000000 
  980000    1.0198088   -1.2434777    20.841174 7.5222469e-05 0.0002425001 0.00011899703 -0.00013582971      1000000 
  990000    1.0701423   -1.2227741    20.790288 0.00023825469 -7.871931e-05 0.00049899748 0.00029448589      1000000 
 1000000    1.0059717   -1.2259749    20.807687 0.00015858423 0.0002937151 0.00016395756 1.8080028e-05      1000000 
 1001000    1.0009546   -1.2366432    20.802009 0.00028330842 0.00013115061 0.00051389393 0.00020488072      1000000 
Loop time of 58.4995 on 1 procs for 1000000 steps with 400 atoms

Performance: 14769356.100 tau/day, 17094.162 timesteps/s
99.1% CPU use with 1 MPI tasks x no OpenMP threads

MPI task timing breakdown:
Section |  min time  |  avg time  |  max time  |%varavg| %total
---------------------------------------------------------------
Pair    | 10.43      | 10.43      | 10.43      |   0.0 | 17.83
Bond    | 18.468     | 18.468     | 18.468     |   0.0 | 31.57
Neigh   | 5.696      | 5.696      | 5.696      |   0.0 |  9.74
Comm    | 0.47555    | 0.47555    | 0.47555    |   0.0 |  0.81
Output  | 0.43147    | 0.43147    | 0.43147    |   0.0 |  0.74
Modify  | 21.398     | 21.398     | 21.398     |   0.0 | 36.58
Other   |            | 1.601      |            |       |  2.74

Nlocal:    400 ave 400 max 400 min
Histogram: 1 0 0 0 0 0 0 0 0 0
Nghost:    10 ave 10 max 10 min
Histogram: 1 0 0 0 0 0 0 0 0 0
Neighs:    1971 ave 1971 max 1971 min
Histogram: 1 0 0 0 0 0 0 0 0 0

Total # of neighbors = 1971
Ave neighs/atom = 4.9275
Ave special neighs/atom = 1.99
Neighbor list builds = 20039
Dangerous builds = 0

include pair.unzipping
 pair_coeff            1           1   1.3999999999999999        1.0000000000000000        2.5000000000000000
 pair_coeff            2           2   1.3999999999999999        1.0000000000000000        2.5000000000000000
 pair_coeff            3           3   1.3999999999999999        1.0000000000000000        2.5000000000000000
 pair_coeff            4           4   1.3999999999999999        1.0000000000000000        2.5000000000000000
 pair_coeff            5           5   1.3999999999999999        1.0000000000000000        2.5000000000000000
 pair_coeff            6           6   1.3999999999999999        1.0000000000000000        2.5000000000000000
 pair_coeff            7           7   1.3999999999999999        1.0000000000000000        2.5000000000000000
 pair_coeff            8           8   1.3999999999999999        1.0000000000000000        2.5000000000000000
 pair_coeff            9           9   1.3999999999999999        1.0000000000000000        2.5000000000000000
 pair_coeff           10          10   1.3999999999999999        1.0000000000000000        2.5000000000000000
 pair_coeff           11          11   1.3999999999999999        1.0000000000000000        2.5000000000000000
 pair_coeff           12          12   1.3999999999999999        1.0000000000000000        2.5000000000000000
 pair_coeff           13          13   1.3999999999999999        1.0000000000000000        2.5000000000000000
 pair_coeff           14          14   1.3999999999999999        1.0000000000000000        2.5000000000000000
 pair_coeff           15          15   1.3999999999999999        1.0000000000000000        2.5000000000000000
 pair_coeff           16          16   1.3999999999999999        1.0000000000000000        2.5000000000000000
 pair_coeff           17          17   1.3999999999999999        1.0000000000000000        2.5000000000000000
 pair_coeff           18          18   1.3999999999999999        1.0000000000000000        2.5000000000000000
 pair_coeff           19          19   1.3999999999999999        1.0000000000000000        2.5000000000000000
 pair_coeff           20          20   1.3999999999999999        1.0000000000000000        2.5000000000000000
 pair_coeff           21          21   1.3999999999999999        1.0000000000000000        2.5000000000000000
 pair_coeff           22          22   1.3999999999999999        1.0000000000000000        2.5000000000000000
 pair_coeff           23          23   1.3999999999999999        1.0000000000000000        2.5000000000000000
 pair_coeff           24          24   1.3999999999999999        1.0000000000000000        2.5000000000000000
 pair_coeff           25          25   1.3999999999999999        1.0000000000000000        2.5000000000000000
 pair_coeff           26          26   1.3999999999999999        1.0000000000000000        2.5000000000000000
 pair_coeff           27          27   1.3999999999999999        1.0000000000000000        2.5000000000000000
 pair_coeff           28          28   1.3999999999999999        1.0000000000000000        2.5000000000000000
 pair_coeff           29          29   1.3999999999999999        1.0000000000000000        2.5000000000000000
 pair_coeff           30          30   1.3999999999999999        1.0000000000000000        2.5000000000000000
 pair_coeff           31          31   1.3999999999999999        1.0000000000000000        2.5000000000000000
 pair_coeff           32          32   1.3999999999999999        1.0000000000000000        2.5000000000000000
 pair_coeff           33          33   1.3999999999999999        1.0000000000000000        2.5000000000000000
 pair_coeff           34          34   1.3999999999999999        1.0000000000000000        2.5000000000000000
 pair_coeff           35          35   1.3999999999999999        1.0000000000000000        2.5000000000000000
 pair_coeff           36          36   1.3999999999999999        1.0000000000000000        2.5000000000000000
 pair_coeff           37          37   1.3999999999999999        1.0000000000000000        2.5000000000000000
 pair_coeff           38          38   1.3999999999999999        1.0000000000000000        2.5000000000000000
 pair_coeff           39          39   1.3999999999999999        1.0000000000000000        2.5000000000000000
 pair_coeff           40          40   1.3999999999999999        1.0000000000000000        2.5000000000000000
 pair_coeff           41          41   1.3999999999999999        1.0000000000000000        2.5000000000000000
 pair_coeff           42          42   1.3999999999999999        1.0000000000000000        2.5000000000000000
 pair_coeff           43          43   1.3999999999999999        1.0000000000000000        2.5000000000000000
 pair_coeff           44          44   1.3999999999999999        1.0000000000000000        2.5000000000000000
 pair_coeff           45          45   1.3999999999999999        1.0000000000000000        2.5000000000000000
 pair_coeff           46          46   1.3999999999999999        1.0000000000000000        2.5000000000000000
 pair_coeff           47          47   1.3999999999999999        1.0000000000000000        2.5000000000000000
 pair_coeff           48          48   1.3999999999999999        1.0000000000000000        2.5000000000000000
 pair_coeff           49          49   1.3999999999999999        1.0000000000000000        2.5000000000000000
 pair_coeff           50          50   1.3999999999999999        1.0000000000000000        2.5000000000000000
 pair_coeff           51          51   1.3999999999999999        1.0000000000000000        2.5000000000000000
 pair_coeff           52          52   1.3999999999999999        1.0000000000000000        2.5000000000000000
 pair_coeff           53          53   1.3999999999999999        1.0000000000000000        2.5000000000000000
 pair_coeff           54          54   1.3999999999999999        1.0000000000000000        2.5000000000000000
 pair_coeff           55          55   1.3999999999999999        1.0000000000000000        2.5000000000000000
 pair_coeff           56          56   1.3999999999999999        1.0000000000000000        2.5000000000000000
 pair_coeff           57          57   1.3999999999999999        1.0000000000000000        2.5000000000000000
 pair_coeff           58          58   1.3999999999999999        1.0000000000000000        2.5000000000000000
 pair_coeff           59          59   1.3999999999999999        1.0000000000000000        2.5000000000000000
 pair_coeff           60          60   1.3999999999999999        1.0000000000000000        2.5000000000000000
 pair_coeff           61          61   1.3999999999999999        1.0000000000000000        2.5000000000000000
 pair_coeff           62          62   1.3999999999999999        1.0000000000000000        2.5000000000000000
 pair_coeff           63          63   1.3999999999999999        1.0000000000000000        2.5000000000000000
 pair_coeff           64          64   1.3999999999999999        1.0000000000000000        2.5000000000000000
 pair_coeff           65          65   1.3999999999999999        1.0000000000000000        2.5000000000000000
 pair_coeff           66          66   1.3999999999999999        1.0000000000000000        2.5000000000000000
 pair_coeff           67          67   1.3999999999999999        1.0000000000000000        2.5000000000000000
 pair_coeff           68          68   1.3999999999999999        1.0000000000000000        2.5000000000000000
 pair_coeff           69          69   1.3999999999999999        1.0000000000000000        2.5000000000000000
 pair_coeff           70          70   1.3999999999999999        1.0000000000000000        2.5000000000000000
 pair_coeff           71          71   1.3999999999999999        1.0000000000000000        2.5000000000000000
 pair_coeff           72          72   1.3999999999999999        1.0000000000000000        2.5000000000000000
 pair_coeff           73          73   1.3999999999999999        1.0000000000000000        2.5000000000000000
 pair_coeff           74          74   1.3999999999999999        1.0000000000000000        2.5000000000000000
 pair_coeff           75          75   1.3999999999999999        1.0000000000000000        2.5000000000000000
 pair_coeff           76          76   1.3999999999999999        1.0000000000000000        2.5000000000000000
 pair_coeff           77          77   1.3999999999999999        1.0000000000000000        2.5000000000000000
 pair_coeff           78          78   1.3999999999999999        1.0000000000000000        2.5000000000000000
 pair_coeff           79          79   1.3999999999999999        1.0000000000000000        2.5000000000000000
 pair_coeff           80          80   1.3999999999999999        1.0000000000000000        2.5000000000000000
 pair_coeff           81          81   1.3999999999999999        1.0000000000000000        2.5000000000000000
 pair_coeff           82          82   1.3999999999999999        1.0000000000000000        2.5000000000000000
 pair_coeff           83          83   1.3999999999999999        1.0000000000000000        2.5000000000000000
 pair_coeff           84          84   1.3999999999999999        1.0000000000000000        2.5000000000000000
 pair_coeff           85          85   1.3999999999999999        1.0000000000000000        2.5000000000000000
 pair_coeff           86          86   1.3999999999999999        1.0000000000000000        2.5000000000000000
 pair_coeff           87          87   1.3999999999999999        1.0000000000000000        2.5000000000000000
 pair_coeff           88          88   1.3999999999999999        1.0000000000000000        2.5000000000000000
 pair_coeff           89          89   1.3999999999999999        1.0000000000000000        2.5000000000000000
 pair_coeff           90          90   1.3999999999999999        1.0000000000000000        2.5000000000000000
 pair_coeff           91          91   1.3999999999999999        1.0000000000000000        2.5000000000000000
 pair_coeff           92          92   1.3999999999999999        1.0000000000000000        2.5000000000000000
 pair_coeff           93          93   1.3999999999999999        1.0000000000000000        2.5000000000000000
 pair_coeff           94          94   1.3999999999999999        1.0000000000000000        2.5000000000000000
 pair_coeff           95          95   1.3999999999999999        1.0000000000000000        2.5000000000000000
 pair_coeff           96          96   1.3999999999999999        1.0000000000000000        2.5000000000000000
 pair_coeff           97          97   1.3999999999999999        1.0000000000000000        2.5000000000000000
 pair_coeff           98          98   1.3999999999999999        1.0000000000000000        2.5000000000000000
 pair_coeff           99          99   1.3999999999999999        1.0000000000000000        2.5000000000000000
 pair_coeff          100         100   1.3999999999999999        1.0000000000000000        2.5000000000000000
 pair_coeff          101         101   1.3999999999999999        1.0000000000000000        2.5000000000000000
 pair_coeff          102         102   1.3999999999999999        1.0000000000000000        2.5000000000000000
 pair_coeff          103         103   1.3999999999999999        1.0000000000000000        2.5000000000000000
 pair_coeff          104         104   1.3999999999999999        1.0000000000000000        2.5000000000000000
 pair_coeff          105         105   1.3999999999999999        1.0000000000000000        2.5000000000000000
 pair_coeff          106         106   1.3999999999999999        1.0000000000000000        2.5000000000000000
 pair_coeff          107         107   1.3999999999999999        1.0000000000000000        2.5000000000000000
 pair_coeff          108         108   1.3999999999999999        1.0000000000000000        2.5000000000000000
 pair_coeff          109         109   1.3999999999999999        1.0000000000000000        2.5000000000000000
 pair_coeff          110         110   1.3999999999999999        1.0000000000000000        2.5000000000000000
 pair_coeff          111         111   1.3999999999999999        1.0000000000000000        2.5000000000000000
 pair_coeff          112         112   1.3999999999999999        1.0000000000000000        2.5000000000000000
 pair_coeff          113         113   1.3999999999999999        1.0000000000000000        2.5000000000000000
 pair_coeff          114         114   1.3999999999999999        1.0000000000000000        2.5000000000000000
 pair_coeff          115         115   1.3999999999999999        1.0000000000000000        2.5000000000000000
 pair_coeff          116         116   1.3999999999999999        1.0000000000000000        2.5000000000000000
 pair_coeff          117         117   1.3999999999999999        1.0000000000000000        2.5000000000000000
 pair_coeff          118         118   1.3999999999999999        1.0000000000000000        2.5000000000000000
 pair_coeff          119         119   1.3999999999999999        1.0000000000000000        2.5000000000000000
 pair_coeff          120         120   1.3999999999999999        1.0000000000000000        2.5000000000000000
 pair_coeff          121         121   1.3999999999999999        1.0000000000000000        2.5000000000000000
 pair_coeff          122         122   1.3999999999999999        1.0000000000000000        2.5000000000000000
 pair_coeff          123         123   1.3999999999999999        1.0000000000000000        2.5000000000000000
 pair_coeff          124         124   1.3999999999999999        1.0000000000000000        2.5000000000000000
 pair_coeff          125         125   1.3999999999999999        1.0000000000000000        2.5000000000000000
 pair_coeff          126         126   1.3999999999999999        1.0000000000000000        2.5000000000000000
 pair_coeff          127         127   1.3999999999999999        1.0000000000000000        2.5000000000000000
 pair_coeff          128         128   1.3999999999999999        1.0000000000000000        2.5000000000000000
 pair_coeff          129         129   1.3999999999999999        1.0000000000000000        2.5000000000000000
 pair_coeff          130         130   1.3999999999999999        1.0000000000000000        2.5000000000000000
 pair_coeff          131         131   1.3999999999999999        1.0000000000000000        2.5000000000000000
 pair_coeff          132         132   1.3999999999999999        1.0000000000000000        2.5000000000000000
 pair_coeff          133         133   1.3999999999999999        1.0000000000000000        2.5000000000000000
 pair_coeff          134         134   1.3999999999999999        1.0000000000000000        2.5000000000000000
 pair_coeff          135         135   1.3999999999999999        1.0000000000000000        2.5000000000000000
 pair_coeff          136         136   1.3999999999999999        1.0000000000000000        2.5000000000000000
 pair_coeff          137         137   1.3999999999999999        1.0000000000000000        2.5000000000000000
 pair_coeff          138         138   1.3999999999999999        1.0000000000000000        2.5000000000000000
 pair_coeff          139         139   1.3999999999999999        1.0000000000000000        2.5000000000000000
 pair_coeff          140         140   1.3999999999999999        1.0000000000000000        2.5000000000000000
 pair_coeff          141         141   1.3999999999999999        1.0000000000000000        2.5000000000000000
 pair_coeff          142         142   1.3999999999999999        1.0000000000000000        2.5000000000000000
 pair_coeff          143         143   1.3999999999999999        1.0000000000000000        2.5000000000000000
 pair_coeff          144         144   1.3999999999999999        1.0000000000000000        2.5000000000000000
 pair_coeff          145         145   1.3999999999999999        1.0000000000000000        2.5000000000000000
 pair_coeff          146         146   1.3999999999999999        1.0000000000000000        2.5000000000000000
 pair_coeff          147         147   1.3999999999999999        1.0000000000000000        2.5000000000000000
 pair_coeff          148         148   1.3999999999999999        1.0000000000000000        2.5000000000000000
 pair_coeff          149         149   1.3999999999999999        1.0000000000000000        2.5000000000000000
 pair_coeff          150         150   1.3999999999999999        1.0000000000000000        2.5000000000000000
 pair_coeff          151         151   1.3999999999999999        1.0000000000000000        2.5000000000000000
 pair_coeff          152         152   1.3999999999999999        1.0000000000000000        2.5000000000000000
 pair_coeff          153         153   1.3999999999999999        1.0000000000000000        2.5000000000000000
 pair_coeff          154         154   1.3999999999999999        1.0000000000000000        2.5000000000000000
 pair_coeff          155         155   1.3999999999999999        1.0000000000000000        2.5000000000000000
 pair_coeff          156         156   1.3999999999999999        1.0000000000000000        2.5000000000000000
 pair_coeff          157         157   1.3999999999999999        1.0000000000000000        2.5000000000000000
 pair_coeff          158         158   1.3999999999999999        1.0000000000000000        2.5000000000000000
 pair_coeff          159         159   1.3999999999999999        1.0000000000000000        2.5000000000000000
 pair_coeff          160         160   1.3999999999999999        1.0000000000000000        2.5000000000000000
 pair_coeff          161         161   1.3999999999999999        1.0000000000000000        2.5000000000000000
 pair_coeff          162         162   1.3999999999999999        1.0000000000000000        2.5000000000000000
 pair_coeff          163         163   1.3999999999999999        1.0000000000000000        2.5000000000000000
 pair_coeff          164         164   1.3999999999999999        1.0000000000000000        2.5000000000000000
 pair_coeff          165         165   1.3999999999999999        1.0000000000000000        2.5000000000000000
 pair_coeff          166         166   1.3999999999999999        1.0000000000000000        2.5000000000000000
 pair_coeff          167         167   1.3999999999999999        1.0000000000000000        2.5000000000000000
 pair_coeff          168         168   1.3999999999999999        1.0000000000000000        2.5000000000000000
 pair_coeff          169         169   1.3999999999999999        1.0000000000000000        2.5000000000000000
 pair_coeff          170         170   1.3999999999999999        1.0000000000000000        2.5000000000000000
 pair_coeff          171         171   1.3999999999999999        1.0000000000000000        2.5000000000000000
 pair_coeff          172         172   1.3999999999999999        1.0000000000000000        2.5000000000000000
 pair_coeff          173         173   1.3999999999999999        1.0000000000000000        2.5000000000000000
 pair_coeff          174         174   1.3999999999999999        1.0000000000000000        2.5000000000000000
 pair_coeff          175         175   1.3999999999999999        1.0000000000000000        2.5000000000000000
 pair_coeff          176         176   1.3999999999999999        1.0000000000000000        2.5000000000000000
 pair_coeff          177         177   1.3999999999999999        1.0000000000000000        2.5000000000000000
 pair_coeff          178         178   1.3999999999999999        1.0000000000000000        2.5000000000000000
 pair_coeff          179         179   1.3999999999999999        1.0000000000000000        2.5000000000000000
 pair_coeff          180         180   1.3999999999999999        1.0000000000000000        2.5000000000000000
 pair_coeff          181         181   1.3999999999999999        1.0000000000000000        2.5000000000000000
 pair_coeff          182         182   1.3999999999999999        1.0000000000000000        2.5000000000000000
 pair_coeff          183         183   1.3999999999999999        1.0000000000000000        2.5000000000000000
 pair_coeff          184         184   1.3999999999999999        1.0000000000000000        2.5000000000000000
 pair_coeff          185         185   1.3999999999999999        1.0000000000000000        2.5000000000000000
 pair_coeff          186         186   1.3999999999999999        1.0000000000000000        2.5000000000000000
 pair_coeff          187         187   1.3999999999999999        1.0000000000000000        2.5000000000000000
 pair_coeff          188         188   1.3999999999999999        1.0000000000000000        2.5000000000000000
 pair_coeff          189         189   1.3999999999999999        1.0000000000000000        2.5000000000000000
 pair_coeff          190         190   1.3999999999999999        1.0000000000000000        2.5000000000000000
 pair_coeff          191         191   1.3999999999999999        1.0000000000000000        2.5000000000000000
 pair_coeff          192         192   1.3999999999999999        1.0000000000000000        2.5000000000000000
 pair_coeff          193         193   1.3999999999999999        1.0000000000000000        2.5000000000000000
 pair_coeff          194         194   1.3999999999999999        1.0000000000000000        2.5000000000000000
 pair_coeff          195         195   1.3999999999999999        1.0000000000000000        2.5000000000000000
 pair_coeff          196         196   1.3999999999999999        1.0000000000000000        2.5000000000000000
 pair_coeff          197         197   1.3999999999999999        1.0000000000000000        2.5000000000000000
 pair_coeff          198         198   1.3999999999999999        1.0000000000000000        2.5000000000000000
 pair_coeff          199         199   1.3999999999999999        1.0000000000000000        2.5000000000000000
 pair_coeff          200         200   1.3999999999999999        1.0000000000000000        2.5000000000000000

run 3000000
Per MPI rank memory allocation (min/avg/max) = 6.723 | 6.723 | 6.723 Mbytes
Step Temp E_pair E_mol Press Pxx Pyy Pzz Volume 
 1001000    1.0009546  -0.57313896    20.802009 0.00031803773 0.00020005685 0.00055451077 0.00019954557      1000000 
 1010000     1.008164  -0.42572308    20.848153 -0.00010215847 0.00030273232 -0.00041400417 -0.00019520356      1000000 
 1020000    1.1146645   -0.4455766    20.891917 -0.00021227126 -5.6465446e-06 -0.00047504206 -0.00015612516      1000000 
 1030000      1.03315  -0.42595898    20.811843 0.00033246893 0.0003988744 0.00021687764 0.00038165474      1000000 
 1040000    1.0321471  -0.39381149    20.941731 0.00033753335 0.00042509962 0.00040084883 0.00018665158      1000000 
 1050000    1.0041581  -0.42380378    20.834711 0.00023932761 -6.0768062e-05 0.00050934743 0.00026940345      1000000 
 1060000   0.97500882  -0.37711136    20.903843 -0.00026551344 -0.0001666361 -0.0001699762 -0.00045992802      1000000 
 1070000   0.96843405  -0.40776051    20.765036 0.00018814589 0.00012358752 8.5477542e-05 0.0003553726      1000000 
 1080000    1.0454167  -0.38108895    20.963052 -1.6043573e-05 0.00012938103 -4.3483514e-05 -0.00013402823      1000000 
 1090000   0.98496438  -0.41775373    20.891514 0.0003904428 0.00039304975 0.00028971109 0.00048856755      1000000 
 1100000    1.0141791  -0.39041456    20.861336 -0.00018882341 -0.00041291622 -6.8152793e-05 -8.5401225e-05      1000000 
 1110000   0.98692643   -0.4044922    20.784076 -0.0001025318 -0.0001894975 -0.00018195961 6.3861706e-05      1000000 
 1120000    0.9919887  -0.35589247     20.92825 0.00039082804 0.00047164082 0.00027629737 0.00042454594      1000000 
 1130000    1.0014522  -0.40038124    20.771771 -4.201423e-05 -0.00010796208 -0.00026684858 0.00024876797      1000000 
 1140000   0.96670813  -0.36549861    20.931993 -5.5495074e-05 0.00014305916 -7.9324943e-05 -0.00023021944      1000000 
 1150000   0.99395801  -0.37149273     20.93691 -0.00011232114 0.00015391606 -0.00024014348 -0.000250736      1000000 
 1160000   0.96129422  -0.40771418    20.828487 -0.00024805881 0.00013524045 -0.00030868763 -0.00057072925      1000000 
 1170000   0.92153906  -0.43464097    20.828195 4.7947898e-07 3.0617337e-05 -0.00021797845 0.00018879955      1000000 
 1180000     1.006569  -0.41938219    20.932767 0.00012919463 -0.00012358383 -4.9131744e-05 0.00056029947      1000000 
 1190000   0.95924631  -0.41771435    20.862805 8.3796095e-05 8.2504372e-05 -3.4842656e-05 0.00020372657      1000000 
 1200000    1.0393441  -0.44750801    20.834917 6.6822385e-06 0.00028665706 -0.00017506153 -9.1548813e-05      1000000 
 1210000    1.0099282  -0.39621842    20.795712 0.00012239045 8.3586506e-05 1.5954905e-05 0.00026762993      1000000 
 1220000    1.0246473  -0.42364401    20.825997 -6.9515828e-05 -0.00019734684 -1.7951896e-05 6.7512515e-06      1000000 
 1230000   0.97480055  -0.45777453    20.780962 -0.00016865272 2.5998687e-05 -0.00036735678 -0.00016460007      1000000 
 1240000    1.0521546  -0.42784564    20.924263 -0.00037556229 -0.00029859985 -0.00088948412 6.1397117e-05      1000000 
 1250000    1.0108681  -0.44095832    20.735653 -0.00011476031 -0.00024276185 0.00010193473 -0.00020345383      1000000 
 1260000   0.97673481  -0.43382714    20.891013 -0.00015073428 -4.9933888e-06 -0.00035812169 -8.9087762e-05      1000000 
 1270000   0.97378776  -0.44424242    20.850814 -0.0002588885 -0.00028468415 -7.8126968e-05 -0.00041385439      1000000 
 1280000   0.90967896  -0.41249061    20.865918 -1.2973795e-05 -7.9549793e-05 2.3754111e-05 1.6874298e-05      1000000 
 1290000    0.9938011  -0.43643449     20.79241 0.00012212442 5.7679685e-07 -6.4309759e-05 0.00043010622      1000000 
 1300000   0.98621869  -0.43736695    20.842855 -0.00030775977 -0.00026921054 -0.00038038625 -0.00027368251      1000000 
 1310000   0.98222568   -0.4036811    20.821224 0.00021154531 0.00015076075 0.00044607411 3.7801053e-05      1000000 
 1320000   0.97684492  -0.42954295    20.781701 4.8461494e-05 8.0726979e-06 0.00013887571 -1.5639252e-06      1000000 
 1330000   0.98243236  -0.42936988    20.949309 0.00028734098 0.00019931514 0.00036487571 0.00029783207      1000000 
 1340000    1.0004807  -0.42086031    20.815366 -0.00022671438 -0.00042666737 -0.00036876783 0.00011529207      1000000 
 1350000   0.97822037  -0.39653275     20.95708 -0.0001048133 -0.0001474717 -4.7063373e-06 -0.00016226185      1000000 
 1360000   0.98986504  -0.48107048    20.801187 8.1934051e-05 0.00045877028 -0.00016307936 -4.9888763e-05      1000000 
 1370000    1.0065722  -0.44269621    20.833053 0.00019655946 0.00026005283 0.0002117415 0.00011788404      1000000 
 1380000    1.0729685  -0.41414716    20.793639 -4.5839622e-05 6.5040207e-05 -0.00023076818 2.8209112e-05      1000000 
 1390000    1.0457887   -0.4564823    20.876607 -4.7625506e-05 -0.00010268512 -0.00019153994 0.00015134854      1000000 
 1400000    0.9410895  -0.38187188    20.895165 -0.00018764906 -0.00039144662 0.00022404093 -0.00039554149      1000000 
 1410000     1.012116  -0.47055803      20.7299 -0.00029930928 -0.00047993383 -0.00029948287 -0.00011851114      1000000 
 1420000    1.0162853  -0.45059799    20.812171 -0.00010922024 -0.00013618553 -7.2178919e-05 -0.00011929628      1000000 
 1430000    1.0667781   -0.4242314    20.960421 -4.1914895e-05 -0.00032658628 9.380836e-05 0.00010703324      1000000 
 1440000   0.99274986  -0.42453714    20.914579 5.3408833e-05 0.00038996456 -0.0002144739 -1.5264156e-05      1000000 
 1450000   0.99862439  -0.45350561    20.845218 -0.00031088567 -0.00020424324 -0.00049481071 -0.00023360307      1000000 
 1460000   0.90016156  -0.46562464    20.879278 -0.0001433083 -9.6835684e-05 -0.00016954411 -0.0001635451      1000000 
 1470000   0.91470771  -0.40155273    20.750998 3.7320157e-05 -0.00014118828 0.00022914988 2.3998866e-05      1000000 
 1480000    1.0577773   -0.3591423    20.863807 -0.0002553983 -0.00031505326 -0.00022853173 -0.00022260993      1000000 
 1490000     1.011895  -0.37735434    20.868677 -8.7212411e-05 -0.00015609887 -7.8949826e-05 -2.6588539e-05      1000000 
 1500000    1.0317227  -0.45181124    20.867866 5.698115e-05 -0.00033832905 0.00030339446 0.00020587804      1000000 
 1510000   0.98439821  -0.45225946    20.908841 -0.00018513804 -0.00039223747 -0.00011829353 -4.4883108e-05      1000000 
 1520000    1.0427745  -0.41660973    20.841213 -0.00034369965 -0.00052232134 -0.00018529052 -0.0003234871      1000000 
 1530000    1.0036088  -0.46098668    20.807139 3.0640877e-05 4.0308364e-05 6.0347213e-05 -8.732947e-06      1000000 
 1540000    1.0457085  -0.45888642    20.797804 0.00032587399 0.0001888536 0.00056566107 0.0002231073      1000000 
 1550000   0.94850673  -0.42254718    20.913547 -0.00016823598 -0.0003110449 -0.00036187803  0.000168215      1000000 
 1560000   0.92874953  -0.40881616    20.813668 -0.00011911527 -0.00060599241 0.00030786518 -5.9218582e-05      1000000 
 1570000    0.9731045  -0.45952805    20.801778 -0.0001298833 -0.00028336412 1.021502e-05 -0.00011650079      1000000 
 1580000   0.97661935  -0.45521686    20.754802 0.00016106314 -0.00013329813 -0.00011287318 0.00072936072      1000000 
 1590000    1.0482587  -0.45706534    20.903474 0.00020881673 9.6492336e-05 0.00013113535 0.0003988225      1000000 
 1600000    1.0038332  -0.39304972     20.80666 3.1772984e-05 -0.00041147254 0.00054053515 -3.3743665e-05      1000000 
 1610000    1.0551764  -0.43970435    20.932267 -0.00016222685 -0.00040824798 -9.7264608e-05 1.8832047e-05      1000000 
 1620000   0.94333372  -0.45324318    20.766851 6.6465553e-06 0.00014476043 -2.059288e-05 -0.00010422789      1000000 
 1630000   0.99268769  -0.48353942     20.78114 -0.00012359557 -0.00018679683 -0.00018233908 -1.650796e-06      1000000 
 1640000    1.0407717  -0.37993439    20.951958 -0.00030420642 -0.00016942513 -0.00048161977 -0.00026157437      1000000 
 1650000    1.0388208  -0.35467774    20.826713 7.6940769e-05 -6.7440455e-05 0.00049598078 -0.00019771802      1000000 
 1660000    1.0305617  -0.37976767    20.913741 -0.00043956733 -0.00048079297 -0.00045768841 -0.00038022061      1000000 
 1670000   0.99304887  -0.40949999    20.985063 -0.00022799896 5.4316738e-05 -0.00063100751 -0.0001073061      1000000 
 1680000     1.031614  -0.42869305    20.688563 -3.043479e-05 8.4832241e-05 5.4385799e-05 -0.00023052241      1000000 
 1690000    1.1166252  -0.41467619     20.84052 -0.00021634855 -5.7931069e-05 -0.0002876795 -0.00030343509      1000000 
 1700000    1.0382646  -0.39124897    21.045658 -0.00015242903 -1.696095e-05 -0.00034233233 -9.7993799e-05      1000000 
 1710000   0.99505403  -0.47598244    20.985556 -0.00027722955 -0.00031012195 -0.00055587508 3.4308385e-05      1000000 
 1720000    1.0297385  -0.38724256    20.948231 -2.4327001e-05 -5.6779127e-05 -0.0003140268 0.00029782492      1000000 
 1730000    1.0483494  -0.44596609    20.796321 0.00010356506 -2.8796152e-05 0.00027777265 6.171867e-05      1000000 
 1740000     1.036861  -0.46820592    20.898153 0.0002160916 0.0003643944 0.00015360216 0.00013027824      1000000 
 1750000    1.0063568  -0.42813613    20.774512 0.00022154312 2.394081e-05 0.00028027448 0.00036041406      1000000 
 1760000    1.0251887  -0.43620233    21.000372 -7.0487924e-05 0.0001752205 -0.00024204888 -0.00014463539      1000000 
 1770000    1.0228061  -0.46009306      20.8946 7.0423801e-05 0.00030441669 -0.00018967516 9.6529873e-05      1000000 
 1780000    1.0428448  -0.42243101     20.84689 -0.00036842522 -0.00046943519 -0.00014301425 -0.00049282623      1000000 
 1790000     1.054452  -0.44378982    20.811786 5.9859758e-05 -2.5112382e-05 0.00030831517 -0.00010362351      1000000 
 1800000    0.9730022  -0.40597019    20.854397 -0.00010784225 -0.00039520252 -2.4279545e-05 9.5955318e-05      1000000 
 1810000   0.98011914  -0.41108459    20.813746 -2.7888116e-05 -0.00012250603 -2.2867872e-06 4.1128466e-05      1000000 
 1820000   0.97658194  -0.44551538    20.897326 -3.8842884e-05 -1.1539774e-05 -0.00020483494 9.9846062e-05      1000000 
 1830000   0.99223225  -0.43805822    20.778184 -0.00014807683 0.00018728582 -0.00045057156 -0.00018094476      1000000 
 1840000   0.96355742  -0.45640503    20.938118 -5.9137201e-05 0.0001143125 -3.8028993e-05 -0.00025369511      1000000 
 1850000    1.0708879  -0.43816981    20.909264 -0.0002379092 -0.00062123314 -5.925882e-05 -3.3235639e-05      1000000 
 1860000   0.92622659  -0.45716981    20.939846 3.809642e-05 -0.00013679017 0.00028840604 -3.7326611e-05      1000000 
 1870000    1.0175498   -0.4250268    20.864564 0.00027774089 0.00045053088 0.00055621116 -0.00017351936      1000000 
 1880000   0.96758002  -0.48198212    20.744872 0.00011816177 -9.8672417e-05 0.00028145593 0.00017170178      1000000 
 1890000    1.0428633  -0.42405665    20.944945 0.00010472373 -0.00010535734 0.00018493481 0.0002345937      1000000 
 1900000   0.96210136  -0.43973637    20.764429 -0.00021739085 -0.00021537389 -0.00026602566 -0.00017077301      1000000 
 1910000    1.0664114  -0.45092953    20.882615 0.00017890563 9.0963147e-05 0.00034112291 0.00010463084      1000000 
 1920000   0.97163048  -0.46161968    20.893863 1.7396646e-05 -6.9194432e-05 0.00015247314 -3.1088766e-05      1000000 
 1930000   0.97043087  -0.41340064    20.972843 -0.00022013592 9.5410699e-05 -0.00055757181 -0.00019824665      1000000 
 1940000   0.96745966  -0.48657581    20.898798 -3.4711167e-05 -0.00010647347 -9.4537887e-05 9.6877856e-05      1000000 
 1950000    1.0637723   -0.4421695     20.92074 -8.8242735e-05 6.5768348e-05 1.4700419e-05 -0.00034519697      1000000 
 1960000     1.036592  -0.45155192    20.790072 0.00021947983 0.00054158157 7.1556827e-05  4.53011e-05      1000000 
 1970000    1.0324322  -0.42417632    20.813039 5.4587893e-05 -2.3631616e-05 0.00015998718 2.7408112e-05      1000000 
 1980000   0.96286157  -0.44321846    20.886232 0.00029728934 0.00040028208 0.00029151393 0.00020007202      1000000 
 1990000    1.0207399  -0.37491671    20.861245 8.6870058e-05 1.430226e-05 0.00025617798 -9.8700621e-06      1000000 
 2000000    1.0111723  -0.39850946    20.851727 1.8731997e-05 -0.00031108356 0.00037308402 -5.8044649e-06      1000000 
 2010000    1.0600156  -0.42497066     20.85899 0.00015005375 0.00027775428 -2.9720872e-05 0.00020212784      1000000 
 2020000     1.029059  -0.43406687    20.893645 7.716505e-06 -4.2608682e-05 0.00027514181 -0.00020938361      1000000 
 2030000    0.9620945  -0.41230125    20.924985 -0.00012883857 -0.0001397949 -0.00035514538 0.00010842457      1000000 
 2040000    1.0099846  -0.37284603    20.866461 -0.00044001385 -0.0004340426 -0.00066657026 -0.00021942869      1000000 
 2050000   0.98319259  -0.37527163    20.807683 7.7497927e-05 0.0001922965 -0.00029570147 0.00033589875      1000000 
 2060000   0.93710416   -0.3850177    20.962964 -0.0005510434 -0.00050724335 -0.00086341711 -0.00028246975      1000000 
 2070000   0.98586737  -0.44747586    20.923986 6.0217911e-05 -5.1472163e-05 -4.8412477e-05 0.00028053837      1000000 
 2080000    1.0328429  -0.40674961    20.793228 0.00018649293 0.00036512054 -0.00020903707 0.00040339532      1000000 
 2090000   0.97408218  -0.44829662    20.792268 -0.00010804438 -0.00033805004 -4.0756182e-05 5.4673079e-05      1000000 
 2100000    1.0884831  -0.44166455    20.783954 0.0001329846 5.5763082e-06 0.00031388302 7.9494462e-05      1000000 
 2110000    1.0383767  -0.42477009    20.824596 -0.00012572032 -7.9544816e-05 -0.00027474403 -2.2872113e-05      1000000 
 2120000    1.0311031  -0.42294837    20.900931 7.8836046e-05 -5.016726e-05 0.00014591538 0.00014076002      1000000 
 2130000    1.0127471  -0.42167576    20.880245 -0.00012556938 0.00030328145 -0.00075063474 7.0645152e-05      1000000 
 2140000    1.0029007  -0.43467983    20.888535 -8.1056857e-05 0.00031531716 -0.00037423805 -0.00018424968      1000000 
 2150000    1.0172245  -0.41321728    20.862513 -7.7979247e-06 -0.00031015605 0.00027016911 1.6593168e-05      1000000 
 2160000    1.0252262  -0.41593531    20.860746 -8.0439819e-05 0.00013160572 9.2047862e-05 -0.00046497304      1000000 
 2170000    0.9865576  -0.44126333    20.806217 -0.00014787938 -5.603512e-05 -0.00027823285 -0.00010937015      1000000 
 2180000    1.0120837  -0.40797769     20.87177 -5.3007973e-05 3.1631752e-05 -3.021772e-05 -0.00016043795      1000000 
 2190000    0.9831721  -0.41614846    20.917284 -8.7335361e-07 0.00022069687 2.418067e-05 -0.0002474976      1000000 
 2200000   0.99677917  -0.45206949    20.853576 9.6611612e-05 5.4875855e-05 7.9672404e-05 0.00015528658      1000000 
 2210000    1.0286812  -0.40314387    20.864979 8.9389181e-05 0.00013553352 2.3015137e-05 0.00010961889      1000000 
 2220000   0.94505459  -0.40297918    20.773717 -0.00036996629 -0.0002787956 -0.00039170775 -0.00043939552      1000000 
 2230000    1.0372558  -0.39212646    20.921254 0.00027104972 0.00015810483 0.00078827276 -0.00013322843      1000000 
 2240000    1.0087517  -0.43132008    20.948984 -0.00017370544 -0.00011494568 -0.00011508194 -0.0002910887      1000000 
 2250000    1.0225686  -0.32548165    20.908183 0.00022155654 0.00041991264 0.0001075363 0.00013722069      1000000 
 2260000     1.042811  -0.39373776    20.886206 -0.00021598707 4.6062008e-05 -0.00032518212 -0.00036884108      1000000 
 2270000    1.0155319  -0.35771084      20.9406 -0.00013886196 -6.9426853e-05 -0.00018404624 -0.0001631128      1000000 
 2280000   0.97819018  -0.37775787    20.910194 -0.00015085207 -0.00032755711 5.6902165e-05 -0.00018190128      1000000 
 2290000   0.95895527  -0.40462367    20.957071 -6.848394e-05 0.00011483288 -0.00032540733 5.1226333e-06      1000000 
 2300000   0.97635999  -0.40018962    20.846052 -0.0004129941 2.0935711e-05 -0.00072425476 -0.00053566323      1000000 
 2310000    1.0475027  -0.44079926    20.987043 0.00012532966 -0.00019173621 0.00027931139 0.0002884138      1000000 
 2320000    1.0775485  -0.44693846     20.88148  0.000460801 0.00049342942 0.00063207478 0.00025689881      1000000 
 2330000   0.98963437  -0.41214736    20.816751 -0.00025100394 -0.00015010952 -0.00053788009 -6.5022196e-05      1000000 
 2340000    1.0758075  -0.40787269    20.989838 0.00033048534 0.00033458576 0.00019440327 0.00046246697      1000000 
 2350000   0.99137281  -0.40776209    20.901508 -2.2095435e-05 0.00017501893 -2.6463725e-05 -0.00021484151      1000000 
 2360000    1.0329297  -0.37488801    20.927427 -0.00026233579 -0.00019433218 -0.00031978701 -0.00027288817      1000000 
 2370000    1.0578172   -0.3896903    20.812559 1.8391916e-05 -0.00014887842 0.00022476219 -2.0708027e-05      1000000 
 2380000    1.0102722  -0.39790192    20.915421 -5.8599594e-05 3.7397792e-05 -0.00019071691 -2.2479665e-05      1000000 
 2390000    1.0597929  -0.44317762    20.857626 0.00016064222 0.00046361974 -0.00013657519 0.0001548821      1000000 
 2400000    1.0823876  -0.44710699    20.806544 -4.6842801e-05 -3.8269645e-05 2.5538187e-05 -0.00012779695      1000000 
 2410000     1.011425  -0.42887527    20.885864 8.5860903e-05 0.00045043865 -0.00012256762 -7.0288318e-05      1000000 
 2420000   0.99681207  -0.42318927    20.772282 -0.00013515035 -0.00015445786 -0.0001476449 -0.00010334829      1000000 
 2430000   0.93446511  -0.41555458    20.804372 -0.00040883185 -0.00033714748 -0.00073688354 -0.00015246453      1000000 
 2440000   0.91041595   -0.3814334    20.935869 -8.2469124e-05 -4.0692017e-06 -0.00060454952 0.00036121135      1000000 
 2450000    1.0401089  -0.47164144    20.897742 0.00020133684 0.00053084809 0.00015493192 -8.1769501e-05      1000000 
 2460000    1.0716816  -0.42751991    20.806143 0.00011494382 -0.00012200094 0.00052527202 -5.8439629e-05      1000000 
 2470000   0.96165078  -0.37819923    21.067584 -0.00012089133 -0.00030366903 7.023027e-05 -0.00012923523      1000000 
 2480000   0.99152865  -0.33916732    20.911174 -0.00013846031 -4.693257e-06 -0.00022012557 -0.00019056211      1000000 
 2490000    1.0954555  -0.38018857    20.799044 0.00023349491 0.00022924768 0.00018689954 0.0002843375      1000000 
 2500000    1.0070475  -0.42416828    20.815536 -0.00016857185 4.4073721e-05 -0.00030840379 -0.00024138546      1000000 
 2510000    1.0177594  -0.43521549    20.858711 0.0001909913 -0.0001018631 0.00071776335 -4.2926344e-05      1000000 
 2520000    1.0514841  -0.43362687    20.845371 0.00010143227 7.0897164e-05 0.00029480778 -6.1408145e-05      1000000 
 2530000   0.96766348  -0.43313285    20.880067 -0.00018039878 -0.00010028625 -8.3354543e-05 -0.00035755556      1000000 
 2540000    1.0167025   -0.4187148    20.893577 1.3997194e-05 -6.5223553e-05 0.00013320838 -2.5993242e-05      1000000 
 2550000     1.023062  -0.47230986    20.935135 9.8117414e-05 0.00028777341 4.9861373e-05 -4.3282542e-05      1000000 
 2560000     1.037981  -0.44365558    20.891528 1.0872634e-05 -0.00014185251 0.00028160337 -0.00010713296      1000000 
 2570000    1.0411492   -0.4382383    20.784537 0.00011016887 0.00010482528 0.0001847439 4.0937421e-05      1000000 
 2580000    1.0001114  -0.43602409    20.845227 -0.00026427896 -0.00023487711 -0.00058345153 2.5491762e-05      1000000 
 2590000    1.0118016  -0.43112988    20.881817 0.00028751658 0.00057030805 0.00013063396 0.00016160774      1000000 
 2600000    1.0352117  -0.41105146    20.940149 -0.00022133227 -0.00016089321 -0.00014206382 -0.00036103977      1000000 
 2610000    1.0830289  -0.44259409    20.823576 -8.4761883e-05 -0.00030098857 -3.6173761e-05 8.2876686e-05      1000000 
 2620000    1.0303756  -0.44884474    20.937054 7.419308e-05 -0.00010017654 0.00012030087 0.0002024549      1000000 
 2630000    1.0197426  -0.44336282    20.938939 0.00057301703 0.0006577159 0.00049150493 0.00056983026      1000000 
 2640000    1.0006727  -0.40238948     20.76573 0.00010807773 0.00024205415 -0.0001169141 0.00019909314      1000000 
 2650000    1.0247116  -0.41285164    20.857225 0.0002543597 0.00049296598 5.8871417e-05 0.0002112417      1000000 
 2660000   0.94148129   -0.4393487     20.81552 2.1100017e-05 0.0002754626 -0.00036014822 0.00014798567      1000000 
 2670000    1.0256012  -0.48482191    20.965386 -0.00010269708 -0.00046407492 2.7213944e-05 0.00012876973      1000000 
 2680000    1.0367049  -0.39041066    20.857076 0.00034644322 0.00033408166 0.0002727512 0.00043249679      1000000 
 2690000   0.99357943  -0.46717514     20.80332 0.00030815835 0.0001669216 0.00024013703 0.00051741641      1000000 
 2700000    1.0011988  -0.42092782    20.831383 1.0460534e-05 -1.040611e-05 -0.00015819307 0.00019998078      1000000 
 2710000   0.96411016  -0.43825836    20.880284 4.6678085e-05 1.8019306e-05 -9.4113805e-06 0.00013142633      1000000 
 2720000   0.95692475  -0.43471821    20.799707 6.9723671e-05 0.00031242348 -8.9079973e-05 -1.4172494e-05      1000000 
 2730000    1.0469804  -0.38173834    20.973162 0.00014399859 0.00041237569 0.00024939721 -0.00022977712      1000000 
 2740000     1.042224  -0.44854035    20.878418 -0.00043451342 -0.00070042673 -0.00028986417 -0.00031324935      1000000 
 2750000    1.0139981  -0.43580353    20.905504 -0.00010271661 4.8081153e-05 -0.00010435841 -0.00025187258      1000000 
 2760000   0.99746577  -0.42406728    20.932961 3.6091407e-06 0.00021384476 -0.00018464809 -1.8369249e-05      1000000 
 2770000   0.95775148  -0.39709952    20.835873 0.00018499115 5.4149597e-05 9.0999523e-05 0.00040982433      1000000 
 2780000   0.99226644  -0.46520946    20.832437 0.00016190285 0.00037301893 -0.00020217809 0.00031486772      1000000 
 2790000    1.0743633  -0.41320129    20.806806 0.00031134001 0.0001618436 0.00050555042 0.00026662602      1000000 
 2800000    1.0112717   -0.4260952    20.809794 -5.0801914e-05 -0.00013764201 -5.8794607e-05 4.4030872e-05      1000000 
 2810000   0.94377535  -0.38365544    20.769758 0.00014669382 0.00025643708 0.00039331675 -0.00020967237      1000000 
 2820000    1.0037043  -0.40864461    20.891099 -5.2005061e-05 9.1658681e-05 -8.5708921e-05 -0.00016196494      1000000 
 2830000   0.99635256  -0.43733429    20.947212 0.0001662983 0.00040689505 -0.00023589095 0.0003278908      1000000 
 2840000   0.94875647  -0.39394739    20.836517 2.7961576e-05 0.00033404843 7.7879356e-05 -0.00032804306      1000000 
 2850000    0.9991202  -0.41858053    20.898962 -0.00042469407 -0.00062226675 -0.00040322068 -0.00024859479      1000000 
 2860000    1.0024583  -0.45417609     20.79654 -0.00016331335 5.4945141e-05 -2.4967411e-05 -0.00051991778      1000000 
 2870000    1.0107308  -0.44190029    20.836648 0.00011197851 -7.0823515e-05 8.320408e-05 0.00032355496      1000000 
 2880000    1.0080792  -0.40345528    20.795683 7.2391344e-05 -9.6651535e-05 0.00023706357 7.6761996e-05      1000000 
 2890000    1.0886091  -0.44005581    20.869971 -0.00014983739 -0.00011059995 -6.8949981e-05 -0.00026996224      1000000 
 2900000   0.95395019  -0.41324221    20.909385 0.00032837595 0.00036103444 0.0002438048 0.0003802886      1000000 
 2910000    1.0521962  -0.37981858    20.919083 0.00015840442 -0.00069276082 0.00081116861 0.00035680548      1000000 
 2920000   0.93550679  -0.35438522    20.918868 0.00016113465  5.32384e-05 0.00025237973 0.00017778582      1000000 
 2930000    1.0607758  -0.46852626    20.864534 -4.7486041e-05 0.0002500183 -0.00014912124 -0.00024335518      1000000 
 2940000    0.9274747  -0.47181889    20.869711 -9.8124021e-05 0.00018585471 -0.00037394505 -0.00010628172      1000000 
 2950000   0.99529902   -0.4261118    20.793427 7.8156434e-05 -0.00022009554 -0.00029098923 0.00074555407      1000000 
 2960000    1.0743697  -0.39506838    20.857981 0.00044182246 0.00067732829 -0.00022381591 0.00087195499      1000000 
 2970000   0.89178552  -0.42425029    20.851661 4.6517963e-05 -0.0001384532 3.2098695e-05 0.00024590839      1000000 
 2980000   0.92974061  -0.41648092    20.931841 0.00013822983 0.00011008398 0.00018068039 0.00012392512      1000000 
 2990000    0.9696784  -0.36337739    20.788139 7.3236976e-05 0.00026329853 -0.00017326645 0.00012967884      1000000 
 3000000   0.94410051  -0.37053815    20.923812 -4.7879639e-05 4.8629321e-05 -0.00021675654 2.4488305e-05      1000000 
 3010000   0.99837718  -0.37193284    20.890607 -6.7241306e-05 0.00011505324 -0.00015958984 -0.00015718732      1000000 
 3020000   0.93896966  -0.43850022    20.796945 -0.00024597614 -0.00019561112 -6.1229552e-05 -0.00048108775      1000000 
 3030000   0.95244268  -0.41829397    20.869745 0.00021415357 0.00038535786 5.8167787e-05 0.00019893507      1000000 
 3040000   0.96193905  -0.37391229    20.863327 -0.00028340512 -0.00039578267 -0.0001766045 -0.00027782818      1000000 
 3050000    1.0280464  -0.36684752    20.891734 0.0002669506 0.00058006896 -0.00014209524 0.00036287809      1000000 
 3060000   0.98558452    -0.435441    20.906743 -0.00019859804 -1.6243998e-05 -9.4330363e-05 -0.00048521976      1000000 
 3070000    1.0125781  -0.38065423    20.771692 3.3369072e-05 -0.00016237188 9.9902759e-05 0.00016257633      1000000 
 3080000    1.0048141   -0.3995433    20.821541 -0.00018217558 -0.00038543488 -0.00017930255 1.8210691e-05      1000000 
 3090000   0.96001186  -0.44362661     20.82946 8.6908173e-05 -6.0469211e-05 3.3750026e-05 0.0002874437      1000000 
 3100000   0.91461386  -0.42187794    20.748586 0.00022969442 0.00027535894 0.00012074171 0.0002929826      1000000 
 3110000    1.0999645  -0.48241117    20.873517 -0.00017508867 -0.00020063719 0.00019410433 -0.00051873316      1000000 
 3120000   0.96945417  -0.44267872    20.899956 -0.00046950647 -0.00023444075 -0.00049641779 -0.00067766087      1000000 
 3130000    1.0153297   -0.4283063    20.821615 0.0001138119 7.1169821e-05 0.00020383824 6.6427628e-05      1000000 
 3140000    1.0084539  -0.41765982    20.883387 6.5059383e-05 3.3349343e-05 -0.00012596385 0.00028779266      1000000 
 3150000    1.0312586  -0.38697299    20.833906 -6.7596197e-05 -4.0334659e-05 3.9936273e-05 -0.0002023902      1000000 
 3160000    1.0102666  -0.38375896    20.920071 0.00012396124 0.00024629816 0.00037341238 -0.00024782681      1000000 
 3170000   0.99795235  -0.43729532    20.794778 0.00016104207 0.00021722943 0.00013881633 0.00012708044      1000000 
 3180000   0.99978818  -0.44725244    20.768183 -0.00021925088 -0.0003933293 -6.366633e-06 -0.00025805671      1000000 
 3190000     1.054934  -0.41178726    20.793026 0.00027910766 0.0006536555 0.00023646843 -5.2800943e-05      1000000 
 3200000    1.0584757  -0.43063315     20.82447 2.998618e-06 -0.00011525569 -7.8540589e-05 0.00020279214      1000000 
 3210000   0.97715336  -0.40671605    20.897816 0.00022007288 7.6349685e-05 0.00035305889 0.00023081007      1000000 
 3220000    1.0597331  -0.44743361    20.830074 0.00031438505 0.00060137905 0.00014575971 0.0001960164      1000000 
 3230000    1.0484354  -0.40483218    20.887972 0.00022488343 0.00027953646 0.00025302186 0.00014209197      1000000 
 3240000   0.99689805  -0.43771493    20.822536 -0.0002173682 -3.3211361e-05 -0.00045177633 -0.00016711691      1000000 
 3250000    1.0259159  -0.38815855    20.839792 -4.7192734e-05 -3.4657207e-05 -1.5391889e-06 -0.00010538181      1000000 
 3260000   0.98493143   -0.4135884    20.807832 -0.0004496366 -0.00039502116 -0.00014718836 -0.00080670026      1000000 
 3270000    1.0272206  -0.45287899    20.848575 0.00015211116 0.00023040383 2.231917e-05 0.00020361048      1000000 
 3280000   0.99725883  -0.42387636    20.857346 -2.1725703e-05 7.4935676e-05 -0.00027161219 0.00013149941      1000000 
 3290000   0.95994786    -0.435333    20.890687 -0.00032092789 -0.00035969567 -0.00032954544 -0.00027354255      1000000 
 3300000   0.94025278  -0.39385241    20.893999 1.3147214e-05 0.00031170323 4.0837423e-05 -0.00031309901      1000000 
 3310000   0.96396129  -0.40020399      20.8477 -5.3211778e-06 6.2520678e-05 9.0439153e-05 -0.00016892336      1000000 
 3320000    1.1111232  -0.44627661    20.848309 1.8147675e-05 5.5817719e-05 0.00019991386 -0.00020128855      1000000 
 3330000    0.9918023  -0.41811847     20.85576 -0.00020508099 -0.00013666604 -0.00024331472 -0.00023526221      1000000 
 3340000   0.98393949  -0.46091513    20.895955 -0.00012016554 -0.00016833217 -0.0001939739 1.8094387e-06      1000000 
 3350000    1.0070058  -0.39857396     20.97293 0.00019835612 -7.3568574e-05 0.00040942796 0.00025920897      1000000 
 3360000    1.0391387  -0.45106257    20.861384 7.031081e-05 0.00014933082 -2.3322664e-05 8.4924276e-05      1000000 
 3370000    1.0056376  -0.35037625    20.825109 -0.00040537363 -0.00038378842 -0.00010704503 -0.00072528743      1000000 
 3380000    1.0225506  -0.41279006    20.845621 0.00048782027 0.00045394245 0.00040902496 0.00060049341      1000000 
 3390000    1.0848134  -0.40889979    20.821993 -9.7067437e-06 -0.00046008164 0.0002561221 0.00017483931      1000000 
 3400000   0.97579302  -0.40797646    20.788119 -0.00011477274 2.9024595e-05 0.00014477725 -0.00051812006      1000000 
 3410000   0.96049139  -0.37325002    20.930136 -0.000180192 4.4235777e-05 -0.00022915557 -0.00035565619      1000000 
 3420000    1.0410976  -0.40737365    20.970928 -0.00027886424 -0.00028976628 -0.00033905762 -0.00020776881      1000000 
 3430000    1.0459836   -0.3950244    20.789298 0.00027239965   0.00024294 0.00036198072 0.00021227824      1000000 
 3440000    1.0742918  -0.40637156    20.856016 0.00010086781 0.00013280637 3.5783932e-06 0.00016621867      1000000 
 3450000    1.0123082  -0.40512843    20.840444 -0.00017963997 -0.00051339347 -4.4490775e-05 1.8964324e-05      1000000 
 3460000   0.99569851   -0.4471513    20.895422 -0.00026984344 -0.00013150911 -0.00011708178 -0.00056093944      1000000 
 3470000    1.0133147  -0.42189547     20.78482 -7.7995037e-05 0.00022900248 8.1202245e-06 -0.00047110781      1000000 
 3480000    1.0138739  -0.45135961    20.749571 0.00018672703 0.00037867187 0.00028545779 -0.00010394858      1000000 
 3490000    1.0400611  -0.43284427    20.846879 3.599051e-05 -0.00029484999 6.2711544e-05 0.00034010998      1000000 
 3500000     1.053374  -0.42340828    20.829363 -0.00013480914 6.1363741e-05 -0.00014748689 -0.00031830428      1000000 
 3510000   0.96477766  -0.44060282    20.796491 6.9849469e-05 -8.4642401e-06 0.00024275424 -2.4741595e-05      1000000 
 3520000   0.99228847  -0.44202699    20.946027 -7.7160623e-05 0.00038827472 -0.00033153594 -0.00028822065      1000000 
 3530000   0.99708071  -0.37745211     20.92152 1.6116399e-05 -5.1810143e-05 0.00031997991 -0.00021982057      1000000 
 3540000   0.97125356   -0.4340803     20.91693 7.6054425e-06 1.8704785e-06 -1.9435889e-05 4.0381738e-05      1000000 
 3550000   0.99367285  -0.46780116    20.924621 -0.00050828115 -0.00081360891 -0.00052856131 -0.00018267324      1000000 
 3560000    1.0440928  -0.40168905    20.912061 0.00010962855 -0.00010718538 0.00058060869 -0.00014453766      1000000 
 3570000   0.96213354  -0.45341311    20.833735 0.00023067874 0.00025059369 1.8934743e-05 0.00042250778      1000000 
 3580000    1.0183961  -0.44163417    20.904994 7.6638432e-05 8.5642703e-05 0.00019046484 -4.6192244e-05      1000000 
 3590000    1.0680323   -0.4195194    20.898209 4.1707885e-05 -2.9763603e-05 0.00033452582 -0.00017963856      1000000 
 3600000   0.95317488  -0.38722082    20.914297 -0.00026437569 -0.00010019995 -0.00029776805 -0.00039515908      1000000 
 3610000   0.97406643  -0.43469193    20.801038 0.00030969827 0.00032364303 5.3989148e-05 0.00055146263      1000000 
 3620000     1.022262  -0.45930333    20.804645 0.00019173512 0.00032441571 0.00015555321 9.5236442e-05      1000000 
 3630000   0.99294114  -0.44670422    20.891711 -0.0001715533 0.00015994342 -0.00050947172 -0.0001651316      1000000 
 3640000    1.0530625  -0.45240168    20.813339 -9.9643065e-05 -0.00016777495 -0.00028098812 0.00014983387      1000000 
 3650000    1.0347829  -0.47485786    20.886537 -6.5038388e-05 0.00022819576 -0.00021308105 -0.00021022988      1000000 
 3660000    0.9321081   -0.4112186    20.933143 8.6621173e-05 5.7907767e-05 -9.4509594e-05 0.00029646535      1000000 
 3670000   0.92289855  -0.39112577    20.976276 0.00011148145 0.00015954826 -0.00010638234 0.00028127843      1000000 
 3680000     1.007844  -0.43243854    20.789714 6.9096518e-06 0.00037364271 -0.00025265435 -0.00010025941      1000000 
 3690000   0.98996589  -0.42259648    20.834629 0.00047303695 0.00046483735 0.00057889243 0.00037538109      1000000 
 3700000    0.9670062  -0.49731996    20.802291 -0.0001338275 -0.00053045517 0.00017323825 -4.4265581e-05      1000000 
 3710000    0.9852921  -0.43268119    20.891707 -8.7913313e-05 7.333311e-05 2.1872429e-05 -0.00035894548      1000000 
 3720000   0.96369156  -0.39682812    20.879299 -0.00010051896 -7.5525732e-05 -0.00010752168 -0.00011850948      1000000 
 3730000   0.95067936  -0.45550095    20.891004 -0.00026521323 -0.0001766348 -0.00017602878 -0.0004429761      1000000 
 3740000    1.0459894  -0.40270141    20.864829 -8.4898878e-05 -3.0408758e-05 -8.9787958e-05 -0.00013449992      1000000 
 3750000   0.95420837  -0.39266274    20.837018 3.4423628e-05 8.361005e-05 0.00036381294 -0.0003441521      1000000 
 3760000    1.0379226  -0.43833701    20.755946 -2.9327308e-05 0.00010286576 -0.0001096938 -8.1153875e-05      1000000 
 3770000     1.118936  -0.39247494    20.820637 0.00010132483 -9.5881261e-05 9.2373578e-05 0.00030748216      1000000 
 3780000    1.0302968  -0.41671388    20.985862 -0.0001987481  2.41482e-05 -0.00038576972 -0.00023462277      1000000 
 3790000   0.91415659  -0.36823021     20.81643 -0.00018807894 -0.00026786214 -0.00010958649 -0.0001867882      1000000 
 3800000   0.94080319  -0.43254576    20.867317 -0.00030426127 -0.00038680501 -5.8453788e-05 -0.00046752501      1000000 
 3810000   0.97057957  -0.45009261     20.85878 -0.00022859012 7.5178923e-05 -0.00046744672 -0.00029350257      1000000 
 3820000   0.99901725  -0.38965514    20.790602 -0.00020842637 0.00018942182 -0.00058808033 -0.00022662062      1000000 
 3830000   0.93465066  -0.39782296    20.881823 -0.00020627325 -1.9752343e-05 -0.00041540512 -0.00018366229      1000000 
 3840000   0.96492686  -0.39188964    20.904011 -0.00021008697 -0.00033742616 -0.00013923568 -0.00015359909      1000000 
 3850000    1.0409828  -0.43896376    20.838939 2.5303927e-06 -7.6342853e-05 3.6330993e-05 4.7603038e-05      1000000 
 3860000     1.026937  -0.41036963    20.879109 -3.2241957e-05 0.00017278199 -0.00018224698 -8.726088e-05      1000000 
 3870000    1.0624108  -0.44682261    20.907278 0.00011149044 7.9891432e-05 5.3440029e-05 0.00020113985      1000000 
 3880000    1.0565712  -0.46333928    20.813315 8.6474254e-05 -8.7219857e-05 0.00028815566 5.8486962e-05      1000000 
 3890000    1.0160178  -0.43424537    20.715221 0.00040488204 0.0001559702 0.00050339779 0.00055527812      1000000 
 3900000   0.98843288  -0.39593153    20.904672 -0.00028694557 -0.00023910802 -0.00037965016 -0.00024207854      1000000 
 3910000   0.95811138  -0.43966589    20.842242 -4.9256165e-05 0.00012865843 -0.00016850391 -0.00010792301      1000000 
 3920000    1.1223812  -0.45589483    20.884255 -0.00013838867 -0.0002090729 -0.00032635285 0.00012025974      1000000 
 3930000   0.98492391  -0.39468959    20.853499 -0.00020621612 2.9509606e-05 -0.00061493379 -3.3224193e-05      1000000 
 3940000     1.002601   -0.4224362    20.911301 1.7503239e-05 9.2596362e-05 -0.00045156763 0.00041148099      1000000 
 3950000    1.0328687  -0.42009802    20.838366 -0.00010747276 1.1587238e-05 -0.00015548915 -0.00017851637      1000000 
 3960000   0.97692635  -0.46852683    20.769677 0.00023212358 -3.7178757e-05 0.00032859812 0.00040495137      1000000 
 3970000    1.0123739  -0.35394878    20.871251 0.00016894141 0.00026592421 9.825488e-05 0.00014264516      1000000 
 3980000   0.97220014  -0.38632916    20.915404 -1.9494929e-05 1.7763909e-05 -0.00011702671 4.0778018e-05      1000000 
 3990000    1.0136052  -0.43034653    21.007149 0.00029856024 0.00061442379 -3.5297411e-05 0.00031655434      1000000 
 4000000   0.98749534  -0.41089293    20.834536 -9.3088827e-06 -1.8067628e-05 -0.00013485035 0.00012499133      1000000 
 4001000    1.0757632  -0.40309518    20.772791 -0.00012664225 -0.00047562493 4.336154e-05 5.2336632e-05      1000000 
Loop time of 180.942 on 1 procs for 3000000 steps with 400 atoms

Performance: 14325041.821 tau/day, 16579.910 timesteps/s
99.3% CPU use with 1 MPI tasks x no OpenMP threads

MPI task timing breakdown:
Section |  min time  |  avg time  |  max time  |%varavg| %total
---------------------------------------------------------------
Pair    | 34.821     | 34.821     | 34.821     |   0.0 | 19.24
Bond    | 55.484     | 55.484     | 55.484     |   0.0 | 30.66
Neigh   | 18.104     | 18.104     | 18.104     |   0.0 | 10.01
Comm    | 2.0795     | 2.0795     | 2.0795     |   0.0 |  1.15
Output  | 1.3203     | 1.3203     | 1.3203     |   0.0 |  0.73
Modify  | 64.259     | 64.259     | 64.259     |   0.0 | 35.51
Other   |            | 4.875      |            |       |  2.69

Nlocal:    400 ave 400 max 400 min
Histogram: 1 0 0 0 0 0 0 0 0 0
Nghost:    29 ave 29 max 29 min
Histogram: 1 0 0 0 0 0 0 0 0 0
Neighs:    1805 ave 1805 max 1805 min
Histogram: 1 0 0 0 0 0 0 0 0 0

Total # of neighbors = 1805
Ave neighs/atom = 4.5125
Ave special neighs/atom = 1.99
Neighbor list builds = 62811
Dangerous builds = 0
Total wall time: 0:03:59
