LAMMPS (17 Nov 2016)
###
# Reference paper:
# K. Kremer and G. S. Grest
# Dynamics of entangled linear polymer melts: A molecular-dynamics simulation
# J Chem Phys 92, 5057 (1990)
###

###
# Box and units  (use LJ units and periodic boundaries)
###

units lj

atom_style angle #with stiffness

boundary        p p p

###
# Pair interactions require lists of neighbours to be calculated
###
neighbor 1.9 bin
neigh_modify every 1 delay 1 check yes

### Generate RESTART file, SPECIAL format, not a .txt file ###
### Useful if simulation crashes ###
restart 1000000 polymer.restart
#############################

#processors 2 1 1

### READ "start" data file ###
read_data lammps_input
  orthogonal box = (-50 -50 -50) to (50 50 50)
  1 by 1 by 1 MPI processor grid
  reading atoms ...
  400 atoms
  reading velocities ...
  400 velocities
  scanning bonds ...
  1 = max bonds/atom
  scanning angles ...
  1 = max angles/atom
  reading bonds ...
  398 bonds
  reading angles ...
  396 angles
  2 = max # of 1-2 neighbors
  2 = max # of 1-3 neighbors
  4 = max # of 1-4 neighbors
  6 = max # of special neighbors
######################

### READ "REstart" data file ###
#read_restart DNAunzipping.restart
######################

### reset timestep ###
reset_timestep 0
######################

###
# Define groups (atom type 1 is group 'all')
###
#group all type *

###
# Dump configs - "simple dumpings"
###

###
# Dump configs + box coords
###
#dump   1   all   custom   10000   DNAunzipping.dump.*  id  x y z  ix iy iz
#dump_modify   1   format "%d %.5f %.5f %.5f %d %d %d"
dump   id all atom 1000 dump.DNAunzipping

###################################################################
# Stiffness term
#
# E = K * (1+cos(theta)), K>0
#
angle_style   cosine
angle_coeff   1 20.0
###################################################################

###################################################################
# Pair interaction between non-bonded atoms
#
#  soft potential, for PUSHING apart overlapping atoms
#  potential E=A*(1 + cos(pi*r/r_c))
#
#  1.12246 = 2^(1/6) is the cut-off r_c

pair_style     soft 1.12246152962189

#
#  pair_coeff for soft, specify 3:
#    * atom type interacting with
#    * atom type
#    * A
#

pair_coeff * * 100.0 1.12246152962189

###################################################################
# Pair interaction between bonded atoms
#
# Harmonic potential:
#
#  E= K * (R-R0)^2
#

bond_style   harmonic

#
# For style harmonic, specify:
#   * bond type
#   * K (energy/distance^2)
#   * R0 (distance)
#

bond_coeff   1   60.0   1.1

###################################################


###
# Set up fixes
###

fix 1 all   nve   ###NVE ensemble
fix 2 all   langevin   1.0 1.0   1.0   15   ###Langevin integrator Tstart Tstop 1/friction rndseed

##### Sample thermodynamic info  (temperature, energy, pressure, etc.) #####
thermo 10000
thermo_style   custom   step  temp  epair  emol  press pxx pyy pzz  vol
############################################################################

###
# set timestep of integrator
###
timestep 0.01 #0.012

###
# run integration for a number of steps
###
run 1000
Neighbor list info ...
  1 neighbor list requests
  update every 1 steps, delay 1 steps, check yes
  max neighbors/atom: 2000, page size: 100000
  master list distance cutoff = 3.02246
  ghost atom cutoff = 3.02246
  binsize = 1.51123 -> bins = 67 67 67
Memory usage per processor = 6.94894 Mbytes
Step Temp E_pair E_mol Press Pxx Pyy Pzz Volume 
       0            0    176.82657    20.864746  0.058863411  0.071728753  0.068804243  0.036057238      1000000 
    1000    1.0293545 2.8168624e-05    1.8289647 0.00026413085 0.00019539992 0.00032705652 0.00026993612      1000000 
Loop time of 0.0685089 on 1 procs for 1000 steps with 400 atoms

Performance: 12611506.840 tau/day, 14596.651 timesteps/s
96.9% CPU use with 1 MPI tasks x no OpenMP threads

MPI task timing breakdown:
Section |  min time  |  avg time  |  max time  |%varavg| %total
---------------------------------------------------------------
Pair    | 0.0050924  | 0.0050924  | 0.0050924  |   0.0 |  7.43
Bond    | 0.019698   | 0.019698   | 0.019698   |   0.0 | 28.75
Neigh   | 0.022544   | 0.022544   | 0.022544   |   0.0 | 32.91
Comm    | 0.00040603 | 0.00040603 | 0.00040603 |   0.0 |  0.59
Output  | 0.00030899 | 0.00030899 | 0.00030899 |   0.0 |  0.45
Modify  | 0.018968   | 0.018968   | 0.018968   |   0.0 | 27.69
Other   |            | 0.001492   |            |       |  2.18

Nlocal:    400 ave 400 max 400 min
Histogram: 1 0 0 0 0 0 0 0 0 0
Nghost:    0 ave 0 max 0 min
Histogram: 1 0 0 0 0 0 0 0 0 0
Neighs:    120 ave 120 max 120 min
Histogram: 1 0 0 0 0 0 0 0 0 0

Total # of neighbors = 120
Ave neighs/atom = 0.3
Ave special neighs/atom = 5.94
Neighbor list builds = 68
Dangerous builds = 0

###################################################################
# Pair interaction between non-bonded atoms
#
#  Lennard-Jones 12-6 potential with cutoff:
#  potential E=4epsilon[ (sigma/r)^12 - (sigma/r)^6]  for r<r_cut
#
#  1.12246 = 2^(1/6) is the minimum of the potential

pair_style      lj/cut 1.12246152962189

#
#  pair_modify shift yes adds a constant to the potential such
#  that E(r_cut)=0. Forces remains unchanged.
#

pair_modify     shift yes

#
#  pair_coeff for lj/cut, specify 4:
#    * atom type interacting with
#    * atom type
#    * epsilon (energy units)
#    * sigma (distance units)
#

pair_coeff      * * 1.0 1.0 1.12246152962189

include pair.unzipping.equilibration
 pair_coeff            1           1   3.0000000000000000        1.0000000000000000        2.5000000000000000
 pair_coeff            2           2   3.0000000000000000        1.0000000000000000        2.5000000000000000
 pair_coeff            3           3   3.0000000000000000        1.0000000000000000        2.5000000000000000
 pair_coeff            4           4   3.0000000000000000        1.0000000000000000        2.5000000000000000
 pair_coeff            5           5   3.0000000000000000        1.0000000000000000        2.5000000000000000
 pair_coeff            6           6   3.0000000000000000        1.0000000000000000        2.5000000000000000
 pair_coeff            7           7   3.0000000000000000        1.0000000000000000        2.5000000000000000
 pair_coeff            8           8   3.0000000000000000        1.0000000000000000        2.5000000000000000
 pair_coeff            9           9   3.0000000000000000        1.0000000000000000        2.5000000000000000
 pair_coeff           10          10   3.0000000000000000        1.0000000000000000        2.5000000000000000
 pair_coeff           11          11   3.0000000000000000        1.0000000000000000        2.5000000000000000
 pair_coeff           12          12   3.0000000000000000        1.0000000000000000        2.5000000000000000
 pair_coeff           13          13   3.0000000000000000        1.0000000000000000        2.5000000000000000
 pair_coeff           14          14   3.0000000000000000        1.0000000000000000        2.5000000000000000
 pair_coeff           15          15   3.0000000000000000        1.0000000000000000        2.5000000000000000
 pair_coeff           16          16   3.0000000000000000        1.0000000000000000        2.5000000000000000
 pair_coeff           17          17   3.0000000000000000        1.0000000000000000        2.5000000000000000
 pair_coeff           18          18   3.0000000000000000        1.0000000000000000        2.5000000000000000
 pair_coeff           19          19   3.0000000000000000        1.0000000000000000        2.5000000000000000
 pair_coeff           20          20   3.0000000000000000        1.0000000000000000        2.5000000000000000
 pair_coeff           21          21   3.0000000000000000        1.0000000000000000        2.5000000000000000
 pair_coeff           22          22   3.0000000000000000        1.0000000000000000        2.5000000000000000
 pair_coeff           23          23   3.0000000000000000        1.0000000000000000        2.5000000000000000
 pair_coeff           24          24   3.0000000000000000        1.0000000000000000        2.5000000000000000
 pair_coeff           25          25   3.0000000000000000        1.0000000000000000        2.5000000000000000
 pair_coeff           26          26   3.0000000000000000        1.0000000000000000        2.5000000000000000
 pair_coeff           27          27   3.0000000000000000        1.0000000000000000        2.5000000000000000
 pair_coeff           28          28   3.0000000000000000        1.0000000000000000        2.5000000000000000
 pair_coeff           29          29   3.0000000000000000        1.0000000000000000        2.5000000000000000
 pair_coeff           30          30   3.0000000000000000        1.0000000000000000        2.5000000000000000
 pair_coeff           31          31   3.0000000000000000        1.0000000000000000        2.5000000000000000
 pair_coeff           32          32   3.0000000000000000        1.0000000000000000        2.5000000000000000
 pair_coeff           33          33   3.0000000000000000        1.0000000000000000        2.5000000000000000
 pair_coeff           34          34   3.0000000000000000        1.0000000000000000        2.5000000000000000
 pair_coeff           35          35   3.0000000000000000        1.0000000000000000        2.5000000000000000
 pair_coeff           36          36   3.0000000000000000        1.0000000000000000        2.5000000000000000
 pair_coeff           37          37   3.0000000000000000        1.0000000000000000        2.5000000000000000
 pair_coeff           38          38   3.0000000000000000        1.0000000000000000        2.5000000000000000
 pair_coeff           39          39   3.0000000000000000        1.0000000000000000        2.5000000000000000
 pair_coeff           40          40   3.0000000000000000        1.0000000000000000        2.5000000000000000
 pair_coeff           41          41   3.0000000000000000        1.0000000000000000        2.5000000000000000
 pair_coeff           42          42   3.0000000000000000        1.0000000000000000        2.5000000000000000
 pair_coeff           43          43   3.0000000000000000        1.0000000000000000        2.5000000000000000
 pair_coeff           44          44   3.0000000000000000        1.0000000000000000        2.5000000000000000
 pair_coeff           45          45   3.0000000000000000        1.0000000000000000        2.5000000000000000
 pair_coeff           46          46   3.0000000000000000        1.0000000000000000        2.5000000000000000
 pair_coeff           47          47   3.0000000000000000        1.0000000000000000        2.5000000000000000
 pair_coeff           48          48   3.0000000000000000        1.0000000000000000        2.5000000000000000
 pair_coeff           49          49   3.0000000000000000        1.0000000000000000        2.5000000000000000
 pair_coeff           50          50   3.0000000000000000        1.0000000000000000        2.5000000000000000
 pair_coeff           51          51   3.0000000000000000        1.0000000000000000        2.5000000000000000
 pair_coeff           52          52   3.0000000000000000        1.0000000000000000        2.5000000000000000
 pair_coeff           53          53   3.0000000000000000        1.0000000000000000        2.5000000000000000
 pair_coeff           54          54   3.0000000000000000        1.0000000000000000        2.5000000000000000
 pair_coeff           55          55   3.0000000000000000        1.0000000000000000        2.5000000000000000
 pair_coeff           56          56   3.0000000000000000        1.0000000000000000        2.5000000000000000
 pair_coeff           57          57   3.0000000000000000        1.0000000000000000        2.5000000000000000
 pair_coeff           58          58   3.0000000000000000        1.0000000000000000        2.5000000000000000
 pair_coeff           59          59   3.0000000000000000        1.0000000000000000        2.5000000000000000
 pair_coeff           60          60   3.0000000000000000        1.0000000000000000        2.5000000000000000
 pair_coeff           61          61   3.0000000000000000        1.0000000000000000        2.5000000000000000
 pair_coeff           62          62   3.0000000000000000        1.0000000000000000        2.5000000000000000
 pair_coeff           63          63   3.0000000000000000        1.0000000000000000        2.5000000000000000
 pair_coeff           64          64   3.0000000000000000        1.0000000000000000        2.5000000000000000
 pair_coeff           65          65   3.0000000000000000        1.0000000000000000        2.5000000000000000
 pair_coeff           66          66   3.0000000000000000        1.0000000000000000        2.5000000000000000
 pair_coeff           67          67   3.0000000000000000        1.0000000000000000        2.5000000000000000
 pair_coeff           68          68   3.0000000000000000        1.0000000000000000        2.5000000000000000
 pair_coeff           69          69   3.0000000000000000        1.0000000000000000        2.5000000000000000
 pair_coeff           70          70   3.0000000000000000        1.0000000000000000        2.5000000000000000
 pair_coeff           71          71   3.0000000000000000        1.0000000000000000        2.5000000000000000
 pair_coeff           72          72   3.0000000000000000        1.0000000000000000        2.5000000000000000
 pair_coeff           73          73   3.0000000000000000        1.0000000000000000        2.5000000000000000
 pair_coeff           74          74   3.0000000000000000        1.0000000000000000        2.5000000000000000
 pair_coeff           75          75   3.0000000000000000        1.0000000000000000        2.5000000000000000
 pair_coeff           76          76   3.0000000000000000        1.0000000000000000        2.5000000000000000
 pair_coeff           77          77   3.0000000000000000        1.0000000000000000        2.5000000000000000
 pair_coeff           78          78   3.0000000000000000        1.0000000000000000        2.5000000000000000
 pair_coeff           79          79   3.0000000000000000        1.0000000000000000        2.5000000000000000
 pair_coeff           80          80   3.0000000000000000        1.0000000000000000        2.5000000000000000
 pair_coeff           81          81   3.0000000000000000        1.0000000000000000        2.5000000000000000
 pair_coeff           82          82   3.0000000000000000        1.0000000000000000        2.5000000000000000
 pair_coeff           83          83   3.0000000000000000        1.0000000000000000        2.5000000000000000
 pair_coeff           84          84   3.0000000000000000        1.0000000000000000        2.5000000000000000
 pair_coeff           85          85   3.0000000000000000        1.0000000000000000        2.5000000000000000
 pair_coeff           86          86   3.0000000000000000        1.0000000000000000        2.5000000000000000
 pair_coeff           87          87   3.0000000000000000        1.0000000000000000        2.5000000000000000
 pair_coeff           88          88   3.0000000000000000        1.0000000000000000        2.5000000000000000
 pair_coeff           89          89   3.0000000000000000        1.0000000000000000        2.5000000000000000
 pair_coeff           90          90   3.0000000000000000        1.0000000000000000        2.5000000000000000
 pair_coeff           91          91   3.0000000000000000        1.0000000000000000        2.5000000000000000
 pair_coeff           92          92   3.0000000000000000        1.0000000000000000        2.5000000000000000
 pair_coeff           93          93   3.0000000000000000        1.0000000000000000        2.5000000000000000
 pair_coeff           94          94   3.0000000000000000        1.0000000000000000        2.5000000000000000
 pair_coeff           95          95   3.0000000000000000        1.0000000000000000        2.5000000000000000
 pair_coeff           96          96   3.0000000000000000        1.0000000000000000        2.5000000000000000
 pair_coeff           97          97   3.0000000000000000        1.0000000000000000        2.5000000000000000
 pair_coeff           98          98   3.0000000000000000        1.0000000000000000        2.5000000000000000
 pair_coeff           99          99   3.0000000000000000        1.0000000000000000        2.5000000000000000
 pair_coeff          100         100   3.0000000000000000        1.0000000000000000        2.5000000000000000
 pair_coeff          101         101   3.0000000000000000        1.0000000000000000        2.5000000000000000
 pair_coeff          102         102   3.0000000000000000        1.0000000000000000        2.5000000000000000
 pair_coeff          103         103   3.0000000000000000        1.0000000000000000        2.5000000000000000
 pair_coeff          104         104   3.0000000000000000        1.0000000000000000        2.5000000000000000
 pair_coeff          105         105   3.0000000000000000        1.0000000000000000        2.5000000000000000
 pair_coeff          106         106   3.0000000000000000        1.0000000000000000        2.5000000000000000
 pair_coeff          107         107   3.0000000000000000        1.0000000000000000        2.5000000000000000
 pair_coeff          108         108   3.0000000000000000        1.0000000000000000        2.5000000000000000
 pair_coeff          109         109   3.0000000000000000        1.0000000000000000        2.5000000000000000
 pair_coeff          110         110   3.0000000000000000        1.0000000000000000        2.5000000000000000
 pair_coeff          111         111   3.0000000000000000        1.0000000000000000        2.5000000000000000
 pair_coeff          112         112   3.0000000000000000        1.0000000000000000        2.5000000000000000
 pair_coeff          113         113   3.0000000000000000        1.0000000000000000        2.5000000000000000
 pair_coeff          114         114   3.0000000000000000        1.0000000000000000        2.5000000000000000
 pair_coeff          115         115   3.0000000000000000        1.0000000000000000        2.5000000000000000
 pair_coeff          116         116   3.0000000000000000        1.0000000000000000        2.5000000000000000
 pair_coeff          117         117   3.0000000000000000        1.0000000000000000        2.5000000000000000
 pair_coeff          118         118   3.0000000000000000        1.0000000000000000        2.5000000000000000
 pair_coeff          119         119   3.0000000000000000        1.0000000000000000        2.5000000000000000
 pair_coeff          120         120   3.0000000000000000        1.0000000000000000        2.5000000000000000
 pair_coeff          121         121   3.0000000000000000        1.0000000000000000        2.5000000000000000
 pair_coeff          122         122   3.0000000000000000        1.0000000000000000        2.5000000000000000
 pair_coeff          123         123   3.0000000000000000        1.0000000000000000        2.5000000000000000
 pair_coeff          124         124   3.0000000000000000        1.0000000000000000        2.5000000000000000
 pair_coeff          125         125   3.0000000000000000        1.0000000000000000        2.5000000000000000
 pair_coeff          126         126   3.0000000000000000        1.0000000000000000        2.5000000000000000
 pair_coeff          127         127   3.0000000000000000        1.0000000000000000        2.5000000000000000
 pair_coeff          128         128   3.0000000000000000        1.0000000000000000        2.5000000000000000
 pair_coeff          129         129   3.0000000000000000        1.0000000000000000        2.5000000000000000
 pair_coeff          130         130   3.0000000000000000        1.0000000000000000        2.5000000000000000
 pair_coeff          131         131   3.0000000000000000        1.0000000000000000        2.5000000000000000
 pair_coeff          132         132   3.0000000000000000        1.0000000000000000        2.5000000000000000
 pair_coeff          133         133   3.0000000000000000        1.0000000000000000        2.5000000000000000
 pair_coeff          134         134   3.0000000000000000        1.0000000000000000        2.5000000000000000
 pair_coeff          135         135   3.0000000000000000        1.0000000000000000        2.5000000000000000
 pair_coeff          136         136   3.0000000000000000        1.0000000000000000        2.5000000000000000
 pair_coeff          137         137   3.0000000000000000        1.0000000000000000        2.5000000000000000
 pair_coeff          138         138   3.0000000000000000        1.0000000000000000        2.5000000000000000
 pair_coeff          139         139   3.0000000000000000        1.0000000000000000        2.5000000000000000
 pair_coeff          140         140   3.0000000000000000        1.0000000000000000        2.5000000000000000
 pair_coeff          141         141   3.0000000000000000        1.0000000000000000        2.5000000000000000
 pair_coeff          142         142   3.0000000000000000        1.0000000000000000        2.5000000000000000
 pair_coeff          143         143   3.0000000000000000        1.0000000000000000        2.5000000000000000
 pair_coeff          144         144   3.0000000000000000        1.0000000000000000        2.5000000000000000
 pair_coeff          145         145   3.0000000000000000        1.0000000000000000        2.5000000000000000
 pair_coeff          146         146   3.0000000000000000        1.0000000000000000        2.5000000000000000
 pair_coeff          147         147   3.0000000000000000        1.0000000000000000        2.5000000000000000
 pair_coeff          148         148   3.0000000000000000        1.0000000000000000        2.5000000000000000
 pair_coeff          149         149   3.0000000000000000        1.0000000000000000        2.5000000000000000
 pair_coeff          150         150   3.0000000000000000        1.0000000000000000        2.5000000000000000
 pair_coeff          151         151   3.0000000000000000        1.0000000000000000        2.5000000000000000
 pair_coeff          152         152   3.0000000000000000        1.0000000000000000        2.5000000000000000
 pair_coeff          153         153   3.0000000000000000        1.0000000000000000        2.5000000000000000
 pair_coeff          154         154   3.0000000000000000        1.0000000000000000        2.5000000000000000
 pair_coeff          155         155   3.0000000000000000        1.0000000000000000        2.5000000000000000
 pair_coeff          156         156   3.0000000000000000        1.0000000000000000        2.5000000000000000
 pair_coeff          157         157   3.0000000000000000        1.0000000000000000        2.5000000000000000
 pair_coeff          158         158   3.0000000000000000        1.0000000000000000        2.5000000000000000
 pair_coeff          159         159   3.0000000000000000        1.0000000000000000        2.5000000000000000
 pair_coeff          160         160   3.0000000000000000        1.0000000000000000        2.5000000000000000
 pair_coeff          161         161   3.0000000000000000        1.0000000000000000        2.5000000000000000
 pair_coeff          162         162   3.0000000000000000        1.0000000000000000        2.5000000000000000
 pair_coeff          163         163   3.0000000000000000        1.0000000000000000        2.5000000000000000
 pair_coeff          164         164   3.0000000000000000        1.0000000000000000        2.5000000000000000
 pair_coeff          165         165   3.0000000000000000        1.0000000000000000        2.5000000000000000
 pair_coeff          166         166   3.0000000000000000        1.0000000000000000        2.5000000000000000
 pair_coeff          167         167   3.0000000000000000        1.0000000000000000        2.5000000000000000
 pair_coeff          168         168   3.0000000000000000        1.0000000000000000        2.5000000000000000
 pair_coeff          169         169   3.0000000000000000        1.0000000000000000        2.5000000000000000
 pair_coeff          170         170   3.0000000000000000        1.0000000000000000        2.5000000000000000
 pair_coeff          171         171   3.0000000000000000        1.0000000000000000        2.5000000000000000
 pair_coeff          172         172   3.0000000000000000        1.0000000000000000        2.5000000000000000
 pair_coeff          173         173   3.0000000000000000        1.0000000000000000        2.5000000000000000
 pair_coeff          174         174   3.0000000000000000        1.0000000000000000        2.5000000000000000
 pair_coeff          175         175   3.0000000000000000        1.0000000000000000        2.5000000000000000
 pair_coeff          176         176   3.0000000000000000        1.0000000000000000        2.5000000000000000
 pair_coeff          177         177   3.0000000000000000        1.0000000000000000        2.5000000000000000
 pair_coeff          178         178   3.0000000000000000        1.0000000000000000        2.5000000000000000
 pair_coeff          179         179   3.0000000000000000        1.0000000000000000        2.5000000000000000
 pair_coeff          180         180   3.0000000000000000        1.0000000000000000        2.5000000000000000
 pair_coeff          181         181   3.0000000000000000        1.0000000000000000        2.5000000000000000
 pair_coeff          182         182   3.0000000000000000        1.0000000000000000        2.5000000000000000
 pair_coeff          183         183   3.0000000000000000        1.0000000000000000        2.5000000000000000
 pair_coeff          184         184   3.0000000000000000        1.0000000000000000        2.5000000000000000
 pair_coeff          185         185   3.0000000000000000        1.0000000000000000        2.5000000000000000
 pair_coeff          186         186   3.0000000000000000        1.0000000000000000        2.5000000000000000
 pair_coeff          187         187   3.0000000000000000        1.0000000000000000        2.5000000000000000
 pair_coeff          188         188   3.0000000000000000        1.0000000000000000        2.5000000000000000
 pair_coeff          189         189   3.0000000000000000        1.0000000000000000        2.5000000000000000
 pair_coeff          190         190   3.0000000000000000        1.0000000000000000        2.5000000000000000
 pair_coeff          191         191   3.0000000000000000        1.0000000000000000        2.5000000000000000
 pair_coeff          192         192   3.0000000000000000        1.0000000000000000        2.5000000000000000
 pair_coeff          193         193   3.0000000000000000        1.0000000000000000        2.5000000000000000
 pair_coeff          194         194   3.0000000000000000        1.0000000000000000        2.5000000000000000
 pair_coeff          195         195   3.0000000000000000        1.0000000000000000        2.5000000000000000
 pair_coeff          196         196   3.0000000000000000        1.0000000000000000        2.5000000000000000
 pair_coeff          197         197   3.0000000000000000        1.0000000000000000        2.5000000000000000
 pair_coeff          198         198   3.0000000000000000        1.0000000000000000        2.5000000000000000
 pair_coeff          199         199   3.0000000000000000        1.0000000000000000        2.5000000000000000
 pair_coeff          200         200   3.0000000000000000        1.0000000000000000        2.5000000000000000

###################################################################
# Pair interaction between bonded atoms
#
# Fene potential + Lennard Jones 12-6:
#
#  E= - 0.5 K R0^2 ln[ 1- (r/R0)^2]
#     + 4epsilon[ (sigma/r)^12 - (sigma/r)^6] + epsilon
#

bond_style   fene

#
# For style fene, specify:
#   * bond type
#   * K (energy/distance^2)
#   * R0 (distance)
#   * epsilon (energy)  (LJ component)
#   * sigma (distance)  (LJ component)
#

special_bonds fene #<=== I M P O R T A N T (new command)
  2 = max # of 1-2 neighbors
  2 = max # of special neighbors

bond_coeff   1   30.0   1.6   1.0   1.0

###################################################

###
# Set up fixes
###

fix 1 all   nve   ###NVE ensemble
fix 2 all   langevin   1.0 1.0   1.0  69   ###Langevin integrator Tstart Tstop 1/friction rndseed

##### Sample thermodynamic info  (temperature, energy, pressure, etc.) #####
thermo 10000
thermo_style   custom   step  temp  epair  emol  press pxx pyy pzz  vol
############################################################################

###
# set timestep of integrator
###
timestep 0.01

###
# run integration for a number of steps
###
run 1000000
Neighbor list info ...
  1 neighbor list requests
  update every 1 steps, delay 1 steps, check yes
  max neighbors/atom: 2000, page size: 100000
  master list distance cutoff = 4.4
  ghost atom cutoff = 4.4
  binsize = 2.2 -> bins = 46 46 46
Memory usage per processor = 6.69894 Mbytes
Step Temp E_pair E_mol Press Pxx Pyy Pzz Volume 
    1000    1.0293545 2.1256024e-06     27.09821 -0.0078357705 -0.0083285011 -0.0089448806 -0.0062339296      1000000 
   10000   0.97885636 -0.098667195     21.03863 0.00015612521 0.00027672058 0.0003167994 -0.00012514436      1000000 
   20000   0.91327418  -0.13776065    21.069402 -0.00028584015 -0.00036951139 -0.00029372327 -0.0001942858      1000000 
   30000   0.93637384  -0.14561059    21.015244 -0.00011201583 -0.00017229386 -0.00015992402 -3.8296281e-06      1000000 
   40000    1.0000504  -0.14984734    21.054868 -0.00026988796 -8.262765e-05 -0.00057469959 -0.00015233663      1000000 
   50000   0.94833534  -0.21175364    21.054418 -0.00028881759 -0.00024758307 -0.00014504548 -0.00047382421      1000000 
   60000   0.98460195  -0.23180746    21.017679 0.00019004514 0.00037780492 0.00029453525 -0.00010220475      1000000 
   70000   0.98306315  -0.26771493     21.00246 -0.00032289069 -0.00034259355 -0.000131805 -0.0004942735      1000000 
   80000    1.0033298  -0.31498865    21.002957 8.6939337e-05 8.3053002e-05 0.00035840728 -0.00018064227      1000000 
   90000   0.94714632  -0.41997026    20.918152 3.2674704e-05 -2.638181e-05 7.5054299e-05 4.9351624e-05      1000000 
  100000   0.98777481  -0.44600532    20.984454 0.00057581642 0.0005265212 0.00051637367 0.00068455439      1000000 
  110000   0.93776337  -0.40405615    20.969012 0.00031073701 0.00066719319 0.00015657546 0.00010844239      1000000 
  120000   0.93744985  -0.48623887     21.05939 -0.00019794742 -0.00029278517  1.68485e-05 -0.0003179056      1000000 
  130000   0.97533474  -0.50074798    20.933292 -0.00029976868 -0.00055036623 -0.00047426224 0.00012532243      1000000 
  140000   0.99195237  -0.53494435    20.930173 8.0092777e-05 0.00056594934 -0.00023165372 -9.401729e-05      1000000 
  150000    1.0040327  -0.53418168    20.829608 -4.5688884e-05 -0.00012670725 3.4444061e-05 -4.4803463e-05      1000000 
  160000    1.1185005   -0.5734356    20.963611 -0.00013591431 5.5561113e-06 -0.00011849636 -0.00029480267      1000000 
  170000    1.0313579  -0.57851723    21.002183 -0.0002311805 -0.00012602669 -0.00052002768 -4.7487142e-05      1000000 
  180000    1.0590914  -0.67745071    21.077628 -6.8474956e-05 -0.00026850854 -2.0396203e-05 8.347988e-05      1000000 
  190000   0.93764818  -0.68382685    20.921157 -7.0623835e-05 0.00026656164 -0.00033512615 -0.000143307      1000000 
  200000    1.0227069  -0.65151439    20.883626 -0.00017212836 -0.0003552316 0.00031443957 -0.00047559306      1000000 
  210000    1.0421322   -0.6842023    20.923738 -3.9896906e-05 0.00018937272 -0.0005244427 0.00021537926      1000000 
  220000   0.99695436  -0.71745288    20.872037 5.0741712e-05 4.6802137e-05  3.97917e-06 0.00010144383      1000000 
  230000    1.0089724  -0.71898244    20.941343 -0.00011466007 -3.2716024e-05 -7.90314e-05 -0.00023223278      1000000 
  240000   0.98750274  -0.71895261    20.832557 -0.00025263227 -0.00024469879 -0.00031532319 -0.00019787484      1000000 
  250000    0.9971343  -0.80477488    20.963781 -5.6713705e-05 -0.0005531297 0.00026013438 0.0001228542      1000000 
  260000    1.0284648  -0.75662258    20.980059 0.00017166853 0.00020254111 0.00032031219 -7.8477246e-06      1000000 
  270000    1.0149481  -0.81625203     20.97314 0.00033680456 0.00038933449 0.00033454982 0.00028652937      1000000 
  280000    1.0568774  -0.84184174    20.878839 -0.0001080479 -0.000331532 1.0806489e-05 -3.4181958e-06      1000000 
  290000    1.0376267  -0.82345329    20.878709 -3.7156679e-05 -0.0004165835 0.00033206997 -2.6956511e-05      1000000 
  300000   0.95644271  -0.86365195     20.88435 -0.00026158454 -0.0002725498 -0.00045597923 -5.6224585e-05      1000000 
  310000     1.005502  -0.88465256    20.953643 -0.00013767496 -0.00012592937 -7.6067449e-05 -0.00021102806      1000000 
  320000    1.0044493  -0.85981356    20.785635 0.00026228438 0.00045500362 -3.8566045e-05 0.00037041557      1000000 
  330000   0.91539285  -0.84901803    20.954508 -7.0287087e-05 -0.00015844596 -2.8643472e-05 -2.3771832e-05      1000000 
  340000   0.97575503  -0.90673456    20.844016 4.7054036e-05 -1.2516344e-05 0.00030833343 -0.00015465498      1000000 
  350000   0.97272096   -0.9674144    20.935357 5.618842e-05 0.00017330152 -0.00026261059 0.00025787433      1000000 
  360000   0.98429511  -0.99602721    20.862817 -2.9029117e-05 -3.9738511e-05 0.00010374349 -0.00015109233      1000000 
  370000    1.0031293   -1.0036114     20.82566 5.9067657e-05 1.3702255e-05 -2.29561e-05 0.00018645682      1000000 
  380000   0.96614606   -1.0199922    20.723164 -5.8576025e-05 0.00034900843 -0.00023163108 -0.00029310543      1000000 
  390000    1.0416277   -1.0623703    20.818736 -0.00015669196 -2.8828941e-05 -0.00030758142 -0.00013366552      1000000 
  400000   0.96580323   -1.0073843    20.967135 -0.00026807212 5.2173863e-05 -0.00050878524 -0.00034760499      1000000 
  410000    1.0310131   -1.0828033    20.853426 -0.00029348299 -0.00033445663 -0.00017139507 -0.00037459726      1000000 
  420000   0.95524388   -1.0468231    20.886802 -0.00029899927 -0.00043546037 -0.00029215155 -0.00016938589      1000000 
  430000   0.97103063    -1.111013    20.941126 -9.0073797e-05 -3.2638886e-05 -0.00022140884 -1.6173665e-05      1000000 
  440000   0.96405971   -1.1260331    20.792741 1.3286232e-05 -6.139075e-05 5.6296689e-05 4.4952758e-05      1000000 
  450000   0.94669229   -1.1220796    20.900643 -0.00015674155 -0.0002263456 -0.00016662983 -7.7249221e-05      1000000 
  460000    1.0024767   -1.1958551    20.808897 0.00011439822 8.8023963e-05 0.00050511928 -0.0002499486      1000000 
  470000    1.0268286   -1.2287462    20.829958 0.00022682204 7.0428708e-05 0.00039384498 0.00021619242      1000000 
  480000   0.99423544   -1.2441271     20.84187 -0.00026804358 -7.4674595e-05 -0.0002005293 -0.00052892686      1000000 
  490000   0.94975933   -1.1906255    20.801185 7.6769657e-05 8.9488527e-05 -3.0094723e-05 0.00017091517      1000000 
  500000    1.0333956   -1.2401374     20.72977 0.00032108161 0.00048729235 0.00023893995 0.00023701252      1000000 
  510000    1.0529481   -1.2494252    20.766101 0.00021205748 0.00045646251 0.00027986587 -0.00010015594      1000000 
  520000    1.0147819   -1.2663392    20.760075 0.00022241626 0.00012078564 0.00018852082 0.00035794231      1000000 
  530000    1.0382374   -1.1916525    20.805115 0.00014632069 9.4364982e-05 0.00014238309 0.00020221401      1000000 
  540000    1.0358738   -1.2455644    20.796644 0.00027713818 0.00026744182 0.00051303419 5.0938529e-05      1000000 
  550000    1.0181158   -1.2136348    20.857447 -0.00017372825 8.1259136e-06 -0.00019812447 -0.0003311862      1000000 
  560000   0.99855753   -1.2668269    20.837219 -0.00028250472 -0.00041262436 -9.378417e-05 -0.00034110563      1000000 
  570000   0.95236429   -1.2913428    20.837517 5.6765043e-05 0.00013295192 -2.4197694e-06 3.9762974e-05      1000000 
  580000   0.97066239   -1.2476622    20.855936 -0.00017497471 -0.00025972258 -0.0004445601 0.00017935856      1000000 
  590000   0.98811396   -1.2434911    20.793974 -0.00017286245 -0.00023254608 -0.00029569529 9.6540289e-06      1000000 
  600000    1.0195608    -1.212538    20.860808 -0.0001308861 -0.00043581706 -0.0001004685 0.00014362726      1000000 
  610000    1.0132713   -1.2462717    20.780127 0.00017757282 0.00043014857 -8.5934509e-05 0.0001885044      1000000 
  620000   0.95977581   -1.2342564    20.822776 -8.8161667e-05 0.00012901938 -0.00011570817 -0.00027779622      1000000 
  630000   0.96728524   -1.2109095     20.71643 0.00023565953 0.00060048546 -2.1291403e-05 0.00012778455      1000000 
  640000    1.0577458   -1.2517602     20.76809 -3.2219817e-05 0.00023820363 -9.2913628e-05 -0.00024194946      1000000 
  650000   0.95667316   -1.1735099    20.760275 0.00020386307 8.2437822e-05 0.00042338116 0.00010577022      1000000 
  660000    1.0194574   -1.2456375    20.818742 -4.8699001e-05 2.371702e-06 3.1535136e-05 -0.00018000384      1000000 
  670000   0.99853989   -1.2097352    20.789284 -1.1390862e-07 6.7944383e-05 -0.00013020789 6.1921784e-05      1000000 
  680000    0.9476265    -1.231444    20.795468 0.0002159392 0.00043301451 0.00031879631 -0.00010399322      1000000 
  690000   0.99467268   -1.2452985    20.754757 0.00014051847 -1.2116259e-05 0.00026405986 0.00016961182      1000000 
  700000    1.0751322   -1.2094654    20.764998 -0.00018702903 -0.00013402767 -0.00031685952 -0.0001101999      1000000 
  710000    1.0253456   -1.1862284    20.791752 7.9220368e-05 -0.00025995704 0.00042836409 6.9254056e-05      1000000 
  720000   0.98732876   -1.2534163    20.794264 0.00040992701 0.00045886898 0.00055684742 0.00021406464      1000000 
  730000   0.96782607   -1.2567355    20.817694 -3.7700622e-05 0.00010425874 -0.00024473051 2.7369897e-05      1000000 
  740000    1.0092133   -1.2478658    20.832471 0.00034150725 0.00050176737 0.00043749824 8.5256137e-05      1000000 
  750000    1.0255013   -1.2137047    20.854893 -1.2969926e-05 -3.0093482e-05 -8.9189626e-05 8.0373329e-05      1000000 
  760000     0.991528   -1.2386678    20.816575 2.7295172e-05 0.00011098384 0.0003150129 -0.00034411122      1000000 
  770000     1.032713   -1.2054086    20.691291 0.00010574677 0.00027484305 -2.0398921e-05 6.279618e-05      1000000 
  780000   0.97340612    -1.261976    20.710046 -0.00010902254 -0.00020158849 -0.00010191303 -2.3566111e-05      1000000 
  790000    1.0368159    -1.198203     20.73272 -0.00012946673 -0.00035105539 -5.7492037e-05 2.0147228e-05      1000000 
  800000    1.0356976   -1.1844497    20.869351 -2.8989894e-05 -7.6706935e-05 7.0575832e-05 -8.0838578e-05      1000000 
  810000    1.1178645   -1.2400777     20.78316 0.00012844396 -4.5059915e-05 0.00025102337 0.00017936843      1000000 
  820000   0.93019083     -1.22634    20.709717 -3.7131943e-05 -8.718921e-05 0.00025575198 -0.0002799586      1000000 
  830000   0.99173639   -1.2521455    20.789555 -0.00020225966 -0.00022371068 -0.00014460919 -0.00023845912      1000000 
  840000   0.98670696   -1.2410288    20.817474 1.4028061e-05 0.00015715954 8.8503753e-05 -0.00020357911      1000000 
  850000    1.0205833     -1.24091    20.855874 0.00017074035 8.1686671e-05 0.00039613242 3.440196e-05      1000000 
  860000   0.97389985   -1.2238548    20.819859 -0.00011033353 -0.00013784077 -0.00011454313 -7.8616705e-05      1000000 
  870000   0.99138032   -1.2201829    20.708355 0.00044673349 0.00034322483 0.00081532921 0.00018164641      1000000 
  880000    1.0693254    -1.230586    20.761483 -0.0005120982 -0.00039421011 -0.00076245269 -0.0003796318      1000000 
  890000    1.0020796   -1.2207642    20.824045 -9.3427176e-05 -0.00033705097 2.1689921e-06 5.4600447e-05      1000000 
  900000   0.98730821   -1.2412787    20.862764 5.738029e-05 0.00023231934 1.4454333e-05 -7.4632802e-05      1000000 
  910000    1.0133391   -1.2350256    20.777969 2.549455e-05 -0.00015897495 -9.0334561e-05 0.00032579317      1000000 
  920000    1.0743994   -1.2528045    20.772901 0.00011020386 -3.0943336e-05 0.00016290357 0.00019865136      1000000 
  930000   0.96091919   -1.2413886    20.836662 0.00025502034 0.00012611778 0.0005113736 0.00012756966      1000000 
  940000    1.0359082   -1.2130887    20.774499 -0.00021733266 -0.000104954 -0.00033685388 -0.00021019011      1000000 
  950000   0.95402256   -1.2469416    20.808921 0.00017851034 0.00043977823 -4.3441375e-05 0.00013919415      1000000 
  960000   0.93056588   -1.2173311    20.812499 -6.7460356e-05 -0.00012660263 5.272718e-05 -0.00012850562      1000000 
  970000    1.0410231   -1.2028366    20.805992 0.00018253766 0.00017460702 0.00027458387  9.84221e-05      1000000 
  980000    1.0198088   -1.2434777    20.841174 7.5222469e-05 0.0002425001 0.00011899703 -0.00013582971      1000000 
  990000    1.0701423   -1.2227741    20.790288 0.00023825469 -7.871931e-05 0.00049899748 0.00029448589      1000000 
 1000000    1.0059717   -1.2259749    20.807687 0.00015858423 0.0002937151 0.00016395756 1.8080028e-05      1000000 
 1001000    1.0009546   -1.2366432    20.802009 0.00028330842 0.00013115061 0.00051389393 0.00020488072      1000000 
Loop time of 57.4288 on 1 procs for 1000000 steps with 400 atoms

Performance: 15044718.648 tau/day, 17412.869 timesteps/s
99.8% CPU use with 1 MPI tasks x no OpenMP threads

MPI task timing breakdown:
Section |  min time  |  avg time  |  max time  |%varavg| %total
---------------------------------------------------------------
Pair    | 9.8848     | 9.8848     | 9.8848     |   0.0 | 17.21
Bond    | 22.558     | 22.558     | 22.558     |   0.0 | 39.28
Neigh   | 4.0852     | 4.0852     | 4.0852     |   0.0 |  7.11
Comm    | 0.31148    | 0.31148    | 0.31148    |   0.0 |  0.54
Output  | 0.3769     | 0.3769     | 0.3769     |   0.0 |  0.66
Modify  | 18.839     | 18.839     | 18.839     |   0.0 | 32.80
Other   |            | 1.374      |            |       |  2.39

Nlocal:    400 ave 400 max 400 min
Histogram: 1 0 0 0 0 0 0 0 0 0
Nghost:    10 ave 10 max 10 min
Histogram: 1 0 0 0 0 0 0 0 0 0
Neighs:    1971 ave 1971 max 1971 min
Histogram: 1 0 0 0 0 0 0 0 0 0

Total # of neighbors = 1971
Ave neighs/atom = 4.9275
Ave special neighs/atom = 1.99
Neighbor list builds = 20039
Dangerous builds = 0

include pair.unzipping
 pair_coeff            1           1   1.7000000000000000        1.0000000000000000        2.5000000000000000
 pair_coeff            2           2   1.7000000000000000        1.0000000000000000        2.5000000000000000
 pair_coeff            3           3   1.7000000000000000        1.0000000000000000        2.5000000000000000
 pair_coeff            4           4   1.7000000000000000        1.0000000000000000        2.5000000000000000
 pair_coeff            5           5   1.7000000000000000        1.0000000000000000        2.5000000000000000
 pair_coeff            6           6   1.7000000000000000        1.0000000000000000        2.5000000000000000
 pair_coeff            7           7   1.7000000000000000        1.0000000000000000        2.5000000000000000
 pair_coeff            8           8   1.7000000000000000        1.0000000000000000        2.5000000000000000
 pair_coeff            9           9   1.7000000000000000        1.0000000000000000        2.5000000000000000
 pair_coeff           10          10   1.7000000000000000        1.0000000000000000        2.5000000000000000
 pair_coeff           11          11   1.7000000000000000        1.0000000000000000        2.5000000000000000
 pair_coeff           12          12   1.7000000000000000        1.0000000000000000        2.5000000000000000
 pair_coeff           13          13   1.7000000000000000        1.0000000000000000        2.5000000000000000
 pair_coeff           14          14   1.7000000000000000        1.0000000000000000        2.5000000000000000
 pair_coeff           15          15   1.7000000000000000        1.0000000000000000        2.5000000000000000
 pair_coeff           16          16   1.7000000000000000        1.0000000000000000        2.5000000000000000
 pair_coeff           17          17   1.7000000000000000        1.0000000000000000        2.5000000000000000
 pair_coeff           18          18   1.7000000000000000        1.0000000000000000        2.5000000000000000
 pair_coeff           19          19   1.7000000000000000        1.0000000000000000        2.5000000000000000
 pair_coeff           20          20   1.7000000000000000        1.0000000000000000        2.5000000000000000
 pair_coeff           21          21   1.7000000000000000        1.0000000000000000        2.5000000000000000
 pair_coeff           22          22   1.7000000000000000        1.0000000000000000        2.5000000000000000
 pair_coeff           23          23   1.7000000000000000        1.0000000000000000        2.5000000000000000
 pair_coeff           24          24   1.7000000000000000        1.0000000000000000        2.5000000000000000
 pair_coeff           25          25   1.7000000000000000        1.0000000000000000        2.5000000000000000
 pair_coeff           26          26   1.7000000000000000        1.0000000000000000        2.5000000000000000
 pair_coeff           27          27   1.7000000000000000        1.0000000000000000        2.5000000000000000
 pair_coeff           28          28   1.7000000000000000        1.0000000000000000        2.5000000000000000
 pair_coeff           29          29   1.7000000000000000        1.0000000000000000        2.5000000000000000
 pair_coeff           30          30   1.7000000000000000        1.0000000000000000        2.5000000000000000
 pair_coeff           31          31   1.7000000000000000        1.0000000000000000        2.5000000000000000
 pair_coeff           32          32   1.7000000000000000        1.0000000000000000        2.5000000000000000
 pair_coeff           33          33   1.7000000000000000        1.0000000000000000        2.5000000000000000
 pair_coeff           34          34   1.7000000000000000        1.0000000000000000        2.5000000000000000
 pair_coeff           35          35   1.7000000000000000        1.0000000000000000        2.5000000000000000
 pair_coeff           36          36   1.7000000000000000        1.0000000000000000        2.5000000000000000
 pair_coeff           37          37   1.7000000000000000        1.0000000000000000        2.5000000000000000
 pair_coeff           38          38   1.7000000000000000        1.0000000000000000        2.5000000000000000
 pair_coeff           39          39   1.7000000000000000        1.0000000000000000        2.5000000000000000
 pair_coeff           40          40   1.7000000000000000        1.0000000000000000        2.5000000000000000
 pair_coeff           41          41   1.7000000000000000        1.0000000000000000        2.5000000000000000
 pair_coeff           42          42   1.7000000000000000        1.0000000000000000        2.5000000000000000
 pair_coeff           43          43   1.7000000000000000        1.0000000000000000        2.5000000000000000
 pair_coeff           44          44   1.7000000000000000        1.0000000000000000        2.5000000000000000
 pair_coeff           45          45   1.7000000000000000        1.0000000000000000        2.5000000000000000
 pair_coeff           46          46   1.7000000000000000        1.0000000000000000        2.5000000000000000
 pair_coeff           47          47   1.7000000000000000        1.0000000000000000        2.5000000000000000
 pair_coeff           48          48   1.7000000000000000        1.0000000000000000        2.5000000000000000
 pair_coeff           49          49   1.7000000000000000        1.0000000000000000        2.5000000000000000
 pair_coeff           50          50   1.7000000000000000        1.0000000000000000        2.5000000000000000
 pair_coeff           51          51   1.7000000000000000        1.0000000000000000        2.5000000000000000
 pair_coeff           52          52   1.7000000000000000        1.0000000000000000        2.5000000000000000
 pair_coeff           53          53   1.7000000000000000        1.0000000000000000        2.5000000000000000
 pair_coeff           54          54   1.7000000000000000        1.0000000000000000        2.5000000000000000
 pair_coeff           55          55   1.7000000000000000        1.0000000000000000        2.5000000000000000
 pair_coeff           56          56   1.7000000000000000        1.0000000000000000        2.5000000000000000
 pair_coeff           57          57   1.7000000000000000        1.0000000000000000        2.5000000000000000
 pair_coeff           58          58   1.7000000000000000        1.0000000000000000        2.5000000000000000
 pair_coeff           59          59   1.7000000000000000        1.0000000000000000        2.5000000000000000
 pair_coeff           60          60   1.7000000000000000        1.0000000000000000        2.5000000000000000
 pair_coeff           61          61   1.7000000000000000        1.0000000000000000        2.5000000000000000
 pair_coeff           62          62   1.7000000000000000        1.0000000000000000        2.5000000000000000
 pair_coeff           63          63   1.7000000000000000        1.0000000000000000        2.5000000000000000
 pair_coeff           64          64   1.7000000000000000        1.0000000000000000        2.5000000000000000
 pair_coeff           65          65   1.7000000000000000        1.0000000000000000        2.5000000000000000
 pair_coeff           66          66   1.7000000000000000        1.0000000000000000        2.5000000000000000
 pair_coeff           67          67   1.7000000000000000        1.0000000000000000        2.5000000000000000
 pair_coeff           68          68   1.7000000000000000        1.0000000000000000        2.5000000000000000
 pair_coeff           69          69   1.7000000000000000        1.0000000000000000        2.5000000000000000
 pair_coeff           70          70   1.7000000000000000        1.0000000000000000        2.5000000000000000
 pair_coeff           71          71   1.7000000000000000        1.0000000000000000        2.5000000000000000
 pair_coeff           72          72   1.7000000000000000        1.0000000000000000        2.5000000000000000
 pair_coeff           73          73   1.7000000000000000        1.0000000000000000        2.5000000000000000
 pair_coeff           74          74   1.7000000000000000        1.0000000000000000        2.5000000000000000
 pair_coeff           75          75   1.7000000000000000        1.0000000000000000        2.5000000000000000
 pair_coeff           76          76   1.7000000000000000        1.0000000000000000        2.5000000000000000
 pair_coeff           77          77   1.7000000000000000        1.0000000000000000        2.5000000000000000
 pair_coeff           78          78   1.7000000000000000        1.0000000000000000        2.5000000000000000
 pair_coeff           79          79   1.7000000000000000        1.0000000000000000        2.5000000000000000
 pair_coeff           80          80   1.7000000000000000        1.0000000000000000        2.5000000000000000
 pair_coeff           81          81   1.7000000000000000        1.0000000000000000        2.5000000000000000
 pair_coeff           82          82   1.7000000000000000        1.0000000000000000        2.5000000000000000
 pair_coeff           83          83   1.7000000000000000        1.0000000000000000        2.5000000000000000
 pair_coeff           84          84   1.7000000000000000        1.0000000000000000        2.5000000000000000
 pair_coeff           85          85   1.7000000000000000        1.0000000000000000        2.5000000000000000
 pair_coeff           86          86   1.7000000000000000        1.0000000000000000        2.5000000000000000
 pair_coeff           87          87   1.7000000000000000        1.0000000000000000        2.5000000000000000
 pair_coeff           88          88   1.7000000000000000        1.0000000000000000        2.5000000000000000
 pair_coeff           89          89   1.7000000000000000        1.0000000000000000        2.5000000000000000
 pair_coeff           90          90   1.7000000000000000        1.0000000000000000        2.5000000000000000
 pair_coeff           91          91   1.7000000000000000        1.0000000000000000        2.5000000000000000
 pair_coeff           92          92   1.7000000000000000        1.0000000000000000        2.5000000000000000
 pair_coeff           93          93   1.7000000000000000        1.0000000000000000        2.5000000000000000
 pair_coeff           94          94   1.7000000000000000        1.0000000000000000        2.5000000000000000
 pair_coeff           95          95   1.7000000000000000        1.0000000000000000        2.5000000000000000
 pair_coeff           96          96   1.7000000000000000        1.0000000000000000        2.5000000000000000
 pair_coeff           97          97   1.7000000000000000        1.0000000000000000        2.5000000000000000
 pair_coeff           98          98   1.7000000000000000        1.0000000000000000        2.5000000000000000
 pair_coeff           99          99   1.7000000000000000        1.0000000000000000        2.5000000000000000
 pair_coeff          100         100   1.7000000000000000        1.0000000000000000        2.5000000000000000
 pair_coeff          101         101   1.7000000000000000        1.0000000000000000        2.5000000000000000
 pair_coeff          102         102   1.7000000000000000        1.0000000000000000        2.5000000000000000
 pair_coeff          103         103   1.7000000000000000        1.0000000000000000        2.5000000000000000
 pair_coeff          104         104   1.7000000000000000        1.0000000000000000        2.5000000000000000
 pair_coeff          105         105   1.7000000000000000        1.0000000000000000        2.5000000000000000
 pair_coeff          106         106   1.7000000000000000        1.0000000000000000        2.5000000000000000
 pair_coeff          107         107   1.7000000000000000        1.0000000000000000        2.5000000000000000
 pair_coeff          108         108   1.7000000000000000        1.0000000000000000        2.5000000000000000
 pair_coeff          109         109   1.7000000000000000        1.0000000000000000        2.5000000000000000
 pair_coeff          110         110   1.7000000000000000        1.0000000000000000        2.5000000000000000
 pair_coeff          111         111   1.7000000000000000        1.0000000000000000        2.5000000000000000
 pair_coeff          112         112   1.7000000000000000        1.0000000000000000        2.5000000000000000
 pair_coeff          113         113   1.7000000000000000        1.0000000000000000        2.5000000000000000
 pair_coeff          114         114   1.7000000000000000        1.0000000000000000        2.5000000000000000
 pair_coeff          115         115   1.7000000000000000        1.0000000000000000        2.5000000000000000
 pair_coeff          116         116   1.7000000000000000        1.0000000000000000        2.5000000000000000
 pair_coeff          117         117   1.7000000000000000        1.0000000000000000        2.5000000000000000
 pair_coeff          118         118   1.7000000000000000        1.0000000000000000        2.5000000000000000
 pair_coeff          119         119   1.7000000000000000        1.0000000000000000        2.5000000000000000
 pair_coeff          120         120   1.7000000000000000        1.0000000000000000        2.5000000000000000
 pair_coeff          121         121   1.7000000000000000        1.0000000000000000        2.5000000000000000
 pair_coeff          122         122   1.7000000000000000        1.0000000000000000        2.5000000000000000
 pair_coeff          123         123   1.7000000000000000        1.0000000000000000        2.5000000000000000
 pair_coeff          124         124   1.7000000000000000        1.0000000000000000        2.5000000000000000
 pair_coeff          125         125   1.7000000000000000        1.0000000000000000        2.5000000000000000
 pair_coeff          126         126   1.7000000000000000        1.0000000000000000        2.5000000000000000
 pair_coeff          127         127   1.7000000000000000        1.0000000000000000        2.5000000000000000
 pair_coeff          128         128   1.7000000000000000        1.0000000000000000        2.5000000000000000
 pair_coeff          129         129   1.7000000000000000        1.0000000000000000        2.5000000000000000
 pair_coeff          130         130   1.7000000000000000        1.0000000000000000        2.5000000000000000
 pair_coeff          131         131   1.7000000000000000        1.0000000000000000        2.5000000000000000
 pair_coeff          132         132   1.7000000000000000        1.0000000000000000        2.5000000000000000
 pair_coeff          133         133   1.7000000000000000        1.0000000000000000        2.5000000000000000
 pair_coeff          134         134   1.7000000000000000        1.0000000000000000        2.5000000000000000
 pair_coeff          135         135   1.7000000000000000        1.0000000000000000        2.5000000000000000
 pair_coeff          136         136   1.7000000000000000        1.0000000000000000        2.5000000000000000
 pair_coeff          137         137   1.7000000000000000        1.0000000000000000        2.5000000000000000
 pair_coeff          138         138   1.7000000000000000        1.0000000000000000        2.5000000000000000
 pair_coeff          139         139   1.7000000000000000        1.0000000000000000        2.5000000000000000
 pair_coeff          140         140   1.7000000000000000        1.0000000000000000        2.5000000000000000
 pair_coeff          141         141   1.7000000000000000        1.0000000000000000        2.5000000000000000
 pair_coeff          142         142   1.7000000000000000        1.0000000000000000        2.5000000000000000
 pair_coeff          143         143   1.7000000000000000        1.0000000000000000        2.5000000000000000
 pair_coeff          144         144   1.7000000000000000        1.0000000000000000        2.5000000000000000
 pair_coeff          145         145   1.7000000000000000        1.0000000000000000        2.5000000000000000
 pair_coeff          146         146   1.7000000000000000        1.0000000000000000        2.5000000000000000
 pair_coeff          147         147   1.7000000000000000        1.0000000000000000        2.5000000000000000
 pair_coeff          148         148   1.7000000000000000        1.0000000000000000        2.5000000000000000
 pair_coeff          149         149   1.7000000000000000        1.0000000000000000        2.5000000000000000
 pair_coeff          150         150   1.7000000000000000        1.0000000000000000        2.5000000000000000
 pair_coeff          151         151   1.7000000000000000        1.0000000000000000        2.5000000000000000
 pair_coeff          152         152   1.7000000000000000        1.0000000000000000        2.5000000000000000
 pair_coeff          153         153   1.7000000000000000        1.0000000000000000        2.5000000000000000
 pair_coeff          154         154   1.7000000000000000        1.0000000000000000        2.5000000000000000
 pair_coeff          155         155   1.7000000000000000        1.0000000000000000        2.5000000000000000
 pair_coeff          156         156   1.7000000000000000        1.0000000000000000        2.5000000000000000
 pair_coeff          157         157   1.7000000000000000        1.0000000000000000        2.5000000000000000
 pair_coeff          158         158   1.7000000000000000        1.0000000000000000        2.5000000000000000
 pair_coeff          159         159   1.7000000000000000        1.0000000000000000        2.5000000000000000
 pair_coeff          160         160   1.7000000000000000        1.0000000000000000        2.5000000000000000
 pair_coeff          161         161   1.7000000000000000        1.0000000000000000        2.5000000000000000
 pair_coeff          162         162   1.7000000000000000        1.0000000000000000        2.5000000000000000
 pair_coeff          163         163   1.7000000000000000        1.0000000000000000        2.5000000000000000
 pair_coeff          164         164   1.7000000000000000        1.0000000000000000        2.5000000000000000
 pair_coeff          165         165   1.7000000000000000        1.0000000000000000        2.5000000000000000
 pair_coeff          166         166   1.7000000000000000        1.0000000000000000        2.5000000000000000
 pair_coeff          167         167   1.7000000000000000        1.0000000000000000        2.5000000000000000
 pair_coeff          168         168   1.7000000000000000        1.0000000000000000        2.5000000000000000
 pair_coeff          169         169   1.7000000000000000        1.0000000000000000        2.5000000000000000
 pair_coeff          170         170   1.7000000000000000        1.0000000000000000        2.5000000000000000
 pair_coeff          171         171   1.7000000000000000        1.0000000000000000        2.5000000000000000
 pair_coeff          172         172   1.7000000000000000        1.0000000000000000        2.5000000000000000
 pair_coeff          173         173   1.7000000000000000        1.0000000000000000        2.5000000000000000
 pair_coeff          174         174   1.7000000000000000        1.0000000000000000        2.5000000000000000
 pair_coeff          175         175   1.7000000000000000        1.0000000000000000        2.5000000000000000
 pair_coeff          176         176   1.7000000000000000        1.0000000000000000        2.5000000000000000
 pair_coeff          177         177   1.7000000000000000        1.0000000000000000        2.5000000000000000
 pair_coeff          178         178   1.7000000000000000        1.0000000000000000        2.5000000000000000
 pair_coeff          179         179   1.7000000000000000        1.0000000000000000        2.5000000000000000
 pair_coeff          180         180   1.7000000000000000        1.0000000000000000        2.5000000000000000
 pair_coeff          181         181   1.7000000000000000        1.0000000000000000        2.5000000000000000
 pair_coeff          182         182   1.7000000000000000        1.0000000000000000        2.5000000000000000
 pair_coeff          183         183   1.7000000000000000        1.0000000000000000        2.5000000000000000
 pair_coeff          184         184   1.7000000000000000        1.0000000000000000        2.5000000000000000
 pair_coeff          185         185   1.7000000000000000        1.0000000000000000        2.5000000000000000
 pair_coeff          186         186   1.7000000000000000        1.0000000000000000        2.5000000000000000
 pair_coeff          187         187   1.7000000000000000        1.0000000000000000        2.5000000000000000
 pair_coeff          188         188   1.7000000000000000        1.0000000000000000        2.5000000000000000
 pair_coeff          189         189   1.7000000000000000        1.0000000000000000        2.5000000000000000
 pair_coeff          190         190   1.7000000000000000        1.0000000000000000        2.5000000000000000
 pair_coeff          191         191   1.7000000000000000        1.0000000000000000        2.5000000000000000
 pair_coeff          192         192   1.7000000000000000        1.0000000000000000        2.5000000000000000
 pair_coeff          193         193   1.7000000000000000        1.0000000000000000        2.5000000000000000
 pair_coeff          194         194   1.7000000000000000        1.0000000000000000        2.5000000000000000
 pair_coeff          195         195   1.7000000000000000        1.0000000000000000        2.5000000000000000
 pair_coeff          196         196   1.7000000000000000        1.0000000000000000        2.5000000000000000
 pair_coeff          197         197   1.7000000000000000        1.0000000000000000        2.5000000000000000
 pair_coeff          198         198   1.7000000000000000        1.0000000000000000        2.5000000000000000
 pair_coeff          199         199   1.7000000000000000        1.0000000000000000        2.5000000000000000
 pair_coeff          200         200   1.7000000000000000        1.0000000000000000        2.5000000000000000

run 3000000
Memory usage per processor = 6.69894 Mbytes
Step Temp E_pair E_mol Press Pxx Pyy Pzz Volume 
 1001000    1.0009546  -0.69754601    20.802009 0.00031152598 0.00018713693 0.00054689511 0.00020054591      1000000 
 1010000   0.97489047  -0.58102913    20.804868 2.5684088e-05 -0.00027202527 3.4028769e-05 0.00031504876      1000000 
 1020000    1.0584616  -0.62457636    20.998697 -0.00019849865 -0.00022074928 -0.00036137274 -1.3373919e-05      1000000 
 1030000   0.97370438  -0.60416293    20.799531 0.00017743394 0.00021610746 0.00041599871 -9.9804351e-05      1000000 
 1040000    1.0113685  -0.59928428    20.876768 -0.00027692474 -0.00024953034 -0.0002567741 -0.00032446978      1000000 
 1050000    1.0663729  -0.54953703    20.846666 -0.0001265271 -0.00015874286 -0.00046135773 0.00024051929      1000000 
 1060000   0.93440145  -0.60392293    20.809531 -2.5324438e-05 1.1710756e-05 3.7158919e-06 -9.1399961e-05      1000000 
 1070000   0.93084411  -0.62597314    20.856007 -0.00020223911 -0.00028770027 -0.00037090906 5.1892014e-05      1000000 
 1080000    1.0614947  -0.57530987    20.791963 0.00017061597 0.0001255292 0.00014398911 0.0002423296      1000000 
 1090000    1.0313148  -0.54328936    20.861767 0.00042020161 0.00018658351 0.00085675814 0.00021726319      1000000 
 1100000   0.99719774  -0.58577596    20.899282 6.2775391e-05 -0.00011120222 0.00025929307 4.0235323e-05      1000000 
 1110000   0.99261237  -0.59181861    20.784752 -0.00014301238 1.1611323e-05 -4.0687821e-05 -0.00039996064      1000000 
 1120000     0.997626  -0.60187723    20.739432 0.00018279709 0.00028533212 -8.0830942e-05 0.0003438901      1000000 
 1130000     1.008967   -0.6260933    20.814851 -2.6266854e-06 0.00018674349 -6.3002294e-06 -0.00018832332      1000000 
 1140000   0.97232811  -0.60245176    20.805787 -0.00045339094 -0.00054750719 -0.00042710231 -0.00038556333      1000000 
 1150000   0.97617035  -0.60906261    20.813823 7.8040233e-05 0.00021686391 0.00018107594 -0.00016381915      1000000 
 1160000   0.99079961   -0.6011596    20.747579 0.00014914191 0.00039572189 8.7238833e-05 -3.5534974e-05      1000000 
 1170000   0.96046529  -0.53902385    21.004629 -0.00019622169 -5.0353435e-05 -0.00038846829 -0.00014984335      1000000 
 1180000   0.95585378  -0.57887968    20.902737 -0.00024278429 -0.00022367291 -0.0004911412 -1.3538746e-05      1000000 
 1190000    0.9531537  -0.55131288    20.865108 0.00015684448 0.00011943689 0.00029771098 5.3385578e-05      1000000 
 1200000    1.0168598  -0.58714822    20.841941 -0.00037023598 -0.00014986746 -0.00038709756 -0.00057374292      1000000 
 1210000    1.0335346  -0.59075586    20.800828 -1.9436904e-05 0.00017973244 -5.416902e-05 -0.00018387413      1000000 
 1220000    1.0197578  -0.57612472    20.834498 0.00021111332 0.00035274796 0.00014229972 0.00013829229      1000000 
 1230000    1.0247439  -0.54257811    20.902227 -0.00028728969 1.8924223e-06 -0.00020664161 -0.00065711989      1000000 
 1240000    1.0424661  -0.62748353    20.913266 -9.1540541e-05 4.9429285e-05 -2.7820496e-05 -0.00029623041      1000000 
 1250000   0.95847349  -0.55801296    20.844568 0.00020648585 0.00040764517 6.8262736e-05 0.00014354963      1000000 
 1260000    1.0227953  -0.58526448    20.821135 -1.1617074e-05 0.0002365256 0.00020904651 -0.00048042334      1000000 
 1270000    1.0047666  -0.57690493    20.758669 0.00023323087 0.00032853974 0.00011348503 0.00025766783      1000000 
 1280000    1.0263521  -0.57530837    20.874518 -2.5875143e-06 -0.00042401322 0.00016437737 0.00025187331      1000000 
 1290000   0.94890651  -0.55827833    20.817395 -0.00020573386 -0.00031767604 -0.00026422709 -3.5298444e-05      1000000 
 1300000    0.9800886  -0.56581854     20.76239 -5.3565241e-05 -0.00013106792 -0.00019340587 0.00016377806      1000000 
 1310000    1.0365303  -0.61236599    20.773931 6.1805069e-05 3.6574826e-05 0.00025840831 -0.00010956793      1000000 
 1320000    1.0046825  -0.57350081    20.788308 0.00014135301 0.00015787463 0.00028557162 -1.9387235e-05      1000000 
 1330000    1.0212014  -0.64656176    20.821242 0.0004615276 0.00053021865 0.00036998369 0.00048438045      1000000 
 1340000    1.0214713  -0.63128455    20.752947 6.2899429e-05 0.00010982454 -0.00036290714 0.00044178089      1000000 
 1350000    1.0286643  -0.59666745    20.835136 0.00015565066 0.00012430536 0.00017762996 0.00016501664      1000000 
 1360000     1.014402   -0.5972466     20.86274 0.00027298015 0.00021904394 0.00031341842 0.00028647808      1000000 
 1370000    1.0341475  -0.60961445    20.848739 0.00013595835 -0.0001269335 0.00043426238 0.00010054617      1000000 
 1380000    0.9697765   -0.5758994    20.925115 -7.6461784e-05 -9.5138164e-05 7.061256e-05 -0.00020485975      1000000 
 1390000    1.0941849  -0.60516388    20.811232 -1.3495758e-05 -0.00014494874 0.00021352033 -0.00010905886      1000000 
 1400000   0.93404065  -0.62419916    20.773825 -0.00033257035 -0.00052913041 -0.00057728465 0.00010870402      1000000 
 1410000   0.99818214  -0.64256802    20.850128 -9.6855306e-05 -0.0002240864 1.8626546e-05 -8.5106063e-05      1000000 
 1420000   0.98668425   -0.5857574    20.810965 0.00018061712 0.0004074855 0.00010043598 3.3929881e-05      1000000 
 1430000    1.0416277  -0.60452172    20.877822 -0.0002935561 -0.00020437972 -0.00052907009 -0.0001472185      1000000 
 1440000   0.97587529  -0.62158505    20.870214 -0.00020997074 0.00018196172 -0.00051776684 -0.0002941071      1000000 
 1450000   0.99258969  -0.55154779    20.978281 -0.00025399066 -0.00030813362 -0.00043543802 -1.8400337e-05      1000000 
 1460000   0.98425358  -0.62941998    20.827015 0.00015941109 0.00038192309 -3.5678205e-05 0.00013198838      1000000 
 1470000   0.94386358  -0.58810851    20.838079 0.0003083872 0.00023285801 0.00056941233 0.00012289126      1000000 
 1480000     0.988135  -0.55217607    20.800612 -1.9863255e-05 -0.00013521574 4.1975155e-05 3.3650817e-05      1000000 
 1490000    0.9879583  -0.62614564    20.808469 -0.00025230849 -5.6108623e-05 -0.00070684986 6.033014e-06      1000000 
 1500000   0.98584099  -0.59923349     20.89773 -2.4488691e-05 -0.00021565789 -4.8945783e-07 0.00014268127      1000000 
 1510000   0.95477821  -0.55627548    20.853671 -0.00018758405 -2.7150729e-05 -0.00023891421 -0.00029668721      1000000 
 1520000   0.98437494  -0.59827557    20.842706 -0.00011520782 0.00013021735 -0.00023475859 -0.00024108221      1000000 
 1530000   0.91558904  -0.59603382    20.859871 -0.00041026729 -0.00055500223 -0.00042505063 -0.00025074902      1000000 
 1540000    1.0773876  -0.59741925    20.796466 0.00013437999 3.5376471e-05 0.00010059231 0.00026717119      1000000 
 1550000   0.92347233  -0.63594071    20.760445 -0.00017455595 -0.00014880252 -0.00019553024 -0.0001793351      1000000 
 1560000    1.0500761  -0.62580078    20.946674 -0.00033962055 -0.00057349495 -0.00023444444 -0.00021092225      1000000 
 1570000    1.0255307   -0.6117409    20.843518 0.00016648533 8.0712451e-05 0.00038018153 3.8562019e-05      1000000 
 1580000    1.0008795  -0.59819972    20.998663 0.00010462498 2.6010721e-05 -3.3669817e-05 0.00032153404      1000000 
 1590000    1.0212761  -0.60666305    20.843816 -0.00016752841 -0.000288312 -7.87644e-05 -0.00013550883      1000000 
 1600000    1.0578533  -0.58018558    20.910116 -0.0002233371 7.8349692e-05 -0.0004005598 -0.00034780118      1000000 
 1610000   0.98123063   -0.6122259    20.920401 9.2764037e-05 4.7381633e-05 1.5114064e-05 0.00021579642      1000000 
 1620000    1.0429279  -0.58479187    20.819727 0.0002174332 0.00017144895 0.00020242565 0.00027842501      1000000 
 1630000   0.97004459  -0.59690692    20.801365 4.2560957e-05 -0.00029849871 0.00026638897 0.00015979262      1000000 
 1640000    1.0604576  -0.59430785      20.9776 -0.00051685411 -0.0008915387 -0.00053161791 -0.00012740572      1000000 
 1650000    1.0324083  -0.59064701    20.823648 6.0417363e-05 9.3149263e-05 9.0522883e-05 -2.4200583e-06      1000000 
 1660000    1.0102045  -0.60366044    20.854894 -0.00027862219 -0.00034708789 -0.00027221845 -0.00021656024      1000000 
 1670000    1.0211809  -0.59187372    20.880061 -0.00013173309 0.00010730053 -4.9584572e-05 -0.00045291522      1000000 
 1680000    1.0212484  -0.59056631    20.833751 0.00017941909 0.00013268779 0.00014836765 0.00025720182      1000000 
 1690000    1.0110447  -0.56492498    20.867612 -3.4076359e-06 0.00025610118 -0.00015514934 -0.00011117475      1000000 
 1700000    1.0592577  -0.52273009    20.936716 -0.00019731977 2.8410933e-05 -0.00023293991 -0.00038743033      1000000 
 1710000   0.96261733  -0.61088438     20.82878 -3.6069801e-05 -0.00024251326 0.00026909761 -0.00013479376      1000000 
 1720000    1.0277241  -0.57366096    20.748051 0.00011635289 2.429963e-05 -0.00019977522 0.00052453426      1000000 
 1730000     1.058701  -0.57867669    20.841609 -0.00010645636 -0.00010572012 -0.00034861279 0.00013496382      1000000 
 1740000   0.97864615  -0.60768423    20.926655 0.00025298532 0.00059205463 0.00028798348 -0.00012108214      1000000 
 1750000    1.0924604  -0.59278456    20.912937 -2.5901989e-05 0.00010296523 0.00013766623 -0.00031833743      1000000 
 1760000    1.0467119  -0.60380168    20.903367 -7.2244689e-05 -0.00019937006 -3.2191969e-05 1.4827966e-05      1000000 
 1770000    0.9792747  -0.60549184    20.828136 -0.00011367893 0.00030089116 -0.00029181994 -0.00035010799      1000000 
 1780000    1.0463542  -0.62776693    20.778365 -0.0003540903 -0.00025235809 -0.00035025581 -0.00045965699      1000000 
 1790000   0.93642966  -0.64637687    20.845253 -0.00018954123 -0.00037134736 1.2350089e-05 -0.00020962643      1000000 
 1800000    1.0708678  -0.56856789     20.78751 -4.2755018e-05 -2.9643545e-05 -6.0973737e-06 -9.2524134e-05      1000000 
 1810000   0.99003404  -0.54774837    20.996202 -0.00011767465 0.00012869232 -0.00033120619 -0.00015051009      1000000 
 1820000    1.0055003  -0.57879881    20.727814 -0.0001517068 -0.00039586222 -0.00017132979 0.00011207161      1000000 
 1830000   0.95132719  -0.58976033    20.860808 0.00038366131 0.0003041314 0.0005171246 0.00032972794      1000000 
 1840000    1.0000895  -0.59979334    20.859082 -0.00015433598 4.8086674e-05 -9.037731e-05 -0.00042071731      1000000 
 1850000    1.0029389  -0.61693467    20.856833 -0.00027636436 -0.00033544445 3.6372805e-05 -0.00053002143      1000000 
 1860000   0.96494432  -0.55813763    20.763155 0.00019289861 0.00032351328 0.00013679599 0.00011838656      1000000 
 1870000    1.0132486  -0.64667942    20.790986 0.00010203237 0.00031660989 -3.4740158e-05 2.4227379e-05      1000000 
 1880000    1.0262728  -0.57475116    20.872313 6.8108242e-06 -0.00015502888 -0.00015734141 0.00033280276      1000000 
 1890000   0.91235277  -0.57550576     20.89947 0.00019381282 6.7130721e-05 5.3702191e-05 0.00046060554      1000000 
 1900000   0.96432383  -0.54000246    20.913614 0.00029581831 0.00042638128 5.5149389e-05 0.00040592427      1000000 
 1910000   0.97386627  -0.53754406    20.864202 -0.00010043829 3.6528789e-05 -0.0003271692 -1.0674473e-05      1000000 
 1920000    0.9000892  -0.61298008    20.845369 -0.00039181785 -0.00029581272 -0.00060865285 -0.00027098799      1000000 
 1930000    1.0057401  -0.59700543     20.86903  0.000337151 0.00049933667 0.0001861313 0.00032598504      1000000 
 1940000   0.97780108  -0.60795845    20.851926 0.00035276472 0.00024331387 0.00041961467 0.00039536561      1000000 
 1950000   0.95312127  -0.59742641      20.8843 -0.00015946821 -0.00015165454 -0.00012984795 -0.00019690213      1000000 
 1960000    1.0290828  -0.61151489    20.913049 0.00033750357 0.00029231419 8.2674747e-05 0.00063752178      1000000 
 1970000    1.0349901  -0.60161334      20.8523 -2.6772339e-05 4.152218e-05 -3.9232316e-05 -8.2606882e-05      1000000 
 1980000     1.000316  -0.59246646    20.823786 -0.00019955229 -0.00026795807 -1.724313e-05 -0.00031345568      1000000 
 1990000   0.98459229  -0.57624756    20.860481 -0.00018754493 -0.00061520112 8.4604376e-06 4.4105889e-05      1000000 
 2000000   0.93486776  -0.58279933    20.764049 -1.6582585e-05 -0.000113394 -7.3587091e-05 0.00013723333      1000000 
 2010000    1.0245944  -0.55861367    20.928579 0.00019368531 0.00018566708 0.00028437485 0.00011101402      1000000 
 2020000    1.0120459  -0.55202867    20.766528 -0.00014779643 -0.00014765309 -0.00035683099 6.1094775e-05      1000000 
 2030000    1.0655553  -0.59788674    20.950822 0.00010908405 0.00032093211 -2.2936522e-05 2.9256572e-05      1000000 
 2040000   0.99153132  -0.56616438    20.884424 -6.0215638e-05 -0.00018601279 -6.1064683e-05 6.6430563e-05      1000000 
 2050000    1.0045266  -0.56164927    20.842405 0.00029768292 0.00034442541 0.00028645699 0.00026216638      1000000 
 2060000   0.98294716  -0.62378915    20.890474 6.1506348e-05 -8.6218496e-05 4.3135849e-05 0.00022760169      1000000 
 2070000    1.0994656  -0.57071715    20.768956 -2.071856e-05 -8.4589815e-05 -0.00011985131 0.00014228545      1000000 
 2080000   0.99579202  -0.55940207    20.839826 0.00055256671 0.00063743673 0.00059680904 0.00042345436      1000000 
 2090000    1.0185963  -0.57425491    20.903324 0.00014914752 0.00035919968 9.8170497e-05 -9.9276087e-06      1000000 
 2100000    1.0373046  -0.55512233    20.826361 -7.6504992e-05 -3.7745742e-05 0.00012659743 -0.00031836667      1000000 
 2110000   0.99390216  -0.59075973    20.820139 -0.00032897457 -0.00050135978 -0.00038950754 -9.6056388e-05      1000000 
 2120000    1.0684661  -0.59483598    20.780522 -0.00020012282 -0.00012083776 -0.00037420322 -0.00010532748      1000000 
 2130000    1.0165003   -0.5855013    20.784318 0.00010782133 1.3382833e-06 0.00026744228 5.468341e-05      1000000 
 2140000   0.96006348  -0.59888179    20.802885 0.00026438988 7.2064923e-05 0.00053059292 0.00019051179      1000000 
 2150000     1.047614  -0.60302181    20.806982 -0.0002418274 -0.00055697102 -2.3718256e-05 -0.00014479292      1000000 
 2160000   0.93034874  -0.53941125    20.804989 -0.000165499 -0.00010333746 -0.00050993748 0.00011677795      1000000 
 2170000   0.99794538  -0.60389864     20.72311 0.00014850924 0.00050167637 -4.581228e-06 -5.1567421e-05      1000000 
 2180000    1.0811247  -0.55086124    20.763489 -0.00019694262 -0.00031771625 -0.00035217447 7.9062853e-05      1000000 
 2190000    0.9660555  -0.61818772    20.849503 -0.00029783452 -0.0002388602 -0.00036124418 -0.00029339918      1000000 
 2200000   0.95918275  -0.59231632    20.940563 -3.4254532e-05 0.00016120439 -0.00014850348 -0.00011546451      1000000 
 2210000      1.00435  -0.59672074    20.778742 -6.9048354e-05 7.7120902e-05 1.7409846e-05 -0.00030167581      1000000 
 2220000   0.98201621  -0.60183769    20.817312 2.1117596e-05 0.00028216061 -7.3783502e-05 -0.00014502432      1000000 
 2230000    1.0066506  -0.61262379    20.814285 -1.0831378e-05 0.00030551567 -7.3701222e-05 -0.00026430859      1000000 
 2240000   0.97875643  -0.55526835    20.840207 -0.0001606494 -0.00034447826 -8.3087421e-05 -5.4382532e-05      1000000 
 2250000   0.97771952  -0.55977927    20.903201 -3.3718187e-06 0.00011153057 -0.00030703448 0.00018538845      1000000 
 2260000   0.93894391  -0.61438919    20.878551 -0.000351562 -0.00051870593 -0.00047638318 -5.9596898e-05      1000000 
 2270000   0.96858641  -0.60540878     20.78247 -7.0685424e-05 -0.00027539741 0.00023848004 -0.00017513891      1000000 
 2280000    1.0199241  -0.61429269    20.883577 3.7848304e-05 -0.0001744547 2.8968997e-05 0.00025903061      1000000 
 2290000    0.9521983  -0.52298621    20.731837 0.0001994314 9.0723164e-08 0.00030994082 0.00028826266      1000000 
 2300000   0.97760979  -0.61294817    20.842103 -0.00027074568 -0.00017123831 -0.00037278965 -0.00026820908      1000000 
 2310000   0.97838991  -0.58313713    20.813102 -0.00012104812 -1.0087998e-05 -7.5340739e-05 -0.00027771562      1000000 
 2320000     1.026304  -0.55633483    20.890973 9.1641294e-05 6.1062205e-06 0.00030409987 -3.5282207e-05      1000000 
 2330000   0.98771884     -0.58049    20.875157 -0.00021023616 -0.00044451223 -0.00011766265 -6.8533614e-05      1000000 
 2340000   0.98111019  -0.57002032    20.788454 -8.9121977e-05 -0.0003637515 0.00027350205 -0.00017711648      1000000 
 2350000   0.99038765  -0.60784867    20.900931 -1.9172591e-05 0.00012877149 3.2738711e-05 -0.00021902797      1000000 
 2360000    1.0370175  -0.57790141    20.726096 0.00022751631 0.0003620888 0.00023900932 8.1450805e-05      1000000 
 2370000   0.98782108  -0.61436839    20.845271 0.00027310649 0.00046511583 6.9429776e-06 0.00034726065      1000000 
 2380000   0.97976634  -0.60647344    20.898127 -4.1633316e-06 -1.6228542e-05 -7.4160306e-05 7.7898853e-05      1000000 
 2390000    1.0015128  -0.58770207    20.888888 -0.00011908468 0.0002710971 -0.00064319683 1.4845702e-05      1000000 
 2400000     1.048011  -0.54834045    20.807818 -0.00018258733 8.6933665e-05 -0.00060118562 -3.3510047e-05      1000000 
 2410000    1.0132582  -0.57457336    20.777302 -2.7030764e-05 1.8215579e-05 -0.00016180354 6.2495673e-05      1000000 
 2420000   0.98828503  -0.57010426    20.895786 -0.00016887503 1.2322639e-05 -0.00037712788 -0.00014181985      1000000 
 2430000    1.0635371  -0.62022866    20.786224 -0.00024991711 -0.00014173131 -0.00026006543 -0.00034795461      1000000 
 2440000   0.96311014  -0.57890556     20.89883 7.3735115e-05 0.00067035214 -0.0002157677 -0.00023337909      1000000 
 2450000     1.012086  -0.57707692    20.786616 1.3845777e-05 0.00016061573 -8.2419291e-05 -3.6659107e-05      1000000 
 2460000    1.0312476  -0.60304145    20.873933 0.0001643353 0.00016135585 0.0002509193 8.0730767e-05      1000000 
 2470000    1.0433974  -0.59521168    20.751893 0.00011835803 -3.9572624e-05 0.00025262759 0.00014201913      1000000 
 2480000   0.99555076  -0.64092048    20.821987 -0.00020740349 -0.00031296686 -0.00020650526 -0.00010273835      1000000 
 2490000   0.96065445  -0.61126928    20.787019 5.0126716e-05 -0.0001530567 0.00026011487 4.3321978e-05      1000000 
 2500000   0.99444742  -0.56070224     20.91979 0.00036341014 0.00064026089 -0.00011724254 0.00056721206      1000000 
 2510000   0.97616378  -0.56960976    20.847783 0.00011524472 0.00010092594 0.00023609123 8.7169759e-06      1000000 
 2520000    1.0326856  -0.59305043    20.842417 -0.0001000154 -0.00018715409 -0.0001489508 3.6058676e-05      1000000 
 2530000    1.0260341  -0.55604526    20.845202 0.00019022116 0.00013778841 0.00011008891 0.00032278615      1000000 
 2540000   0.99814444  -0.61631657    20.797551 9.9213383e-06 -6.0423382e-05  0.000120444 -3.0256599e-05      1000000 
 2550000    1.0553643  -0.59452987    20.740563 0.00031815236 7.3019606e-05 0.00041888091 0.00046255657      1000000 
 2560000   0.99272915  -0.59992883    20.734167 0.00012664429 -2.6619798e-06 0.00031569333 6.6901503e-05      1000000 
 2570000   0.97545778  -0.63616109    20.882603 -0.00019407417 -9.0189899e-05 -0.00028631485 -0.00020571777      1000000 
 2580000    0.9773078  -0.56946876    20.800769  3.63325e-05 -1.6124138e-05 0.00022378226 -9.8660625e-05      1000000 
 2590000   0.97963654  -0.61474857    20.777664 -0.00010555917 -0.00013778133 -8.3375942e-05 -9.5520237e-05      1000000 
 2600000    1.0292413   -0.5843198    20.737505 0.00023017635 0.00068279949 -3.7508082e-05 4.523763e-05      1000000 
 2610000    1.0173796  -0.55968289    20.808498 -6.8055669e-05 0.00022671459 -0.00036916655 -6.1715043e-05      1000000 
 2620000    1.0153984  -0.61034196    20.861024 -0.00028817449 -0.00056234959 -0.00027865724 -2.3516632e-05      1000000 
 2630000    1.0326759  -0.63564131    20.803744 0.00015722973 0.00024900931 0.00040219867 -0.0001795188      1000000 
 2640000    1.0196271  -0.54589793    20.962694 8.7626651e-05 -0.00029857363 0.00027551656 0.00028593702      1000000 
 2650000   0.97963761  -0.60108324    20.852705 -6.6722769e-05 -0.00024050043 0.00014443623 -0.00010410411      1000000 
 2660000   0.94537211  -0.58815995    20.798237 -0.0002624896 -0.00019083709 -0.00032763341 -0.0002689983      1000000 
 2670000    1.0376844  -0.58783058    20.859474 -0.00030924132 -0.00027430855 -0.00048318648 -0.00017022894      1000000 
 2680000    0.9597465  -0.60862815    20.810998 1.8419239e-05 0.00016019917 -0.00016264407 5.7702607e-05      1000000 
 2690000   0.92518122  -0.60868833     20.87579 -0.0002603664 0.00031580079 -0.001096796 -1.0394854e-07      1000000 
 2700000     1.059588  -0.55223787    21.029382 0.00026473465 0.00047704096 0.00019370799 0.00012345498      1000000 
 2710000    1.1345776  -0.58046459    20.831571 0.00025877319 0.00043776927 0.00021006313 0.00012848716      1000000 
 2720000   0.99272656   -0.5650111    20.803895 4.5789435e-06 -0.00020498764 0.00026205568 -4.3331206e-05      1000000 
 2730000   0.96046866  -0.61749837    20.905901 3.3297588e-05 4.1990227e-05 0.00014384251 -8.593997e-05      1000000 
 2740000   0.99093806  -0.58544112    20.826957 -0.00015104334 -0.00050301998 -5.1225791e-05 0.00010111576      1000000 
 2750000    1.0401396  -0.60039948    20.763279 0.00019111971 0.00025922282 -1.5828555e-06 0.00031571918      1000000 
 2760000   0.97791265  -0.59785843    20.778485 -0.00038860877 -0.00037273821 -0.00062308762 -0.00017000048      1000000 
 2770000    1.0053969   -0.5989838     20.82191 0.00018276057 0.00031861315 2.1791377e-05 0.00020787718      1000000 
 2780000   0.94887111  -0.58805049    20.856864 -6.1644449e-05 0.00017642859 -0.00015871175 -0.00020265018      1000000 
 2790000   0.97516259  -0.60282213    20.733728 -4.9284682e-05 0.00011267632 -0.00026153362 1.0032531e-06      1000000 
 2800000    1.0396753  -0.58938426    20.898642 0.00024490147 1.2690611e-05 0.00061026723 0.00011174656      1000000 
 2810000   0.96452898  -0.54950224    20.765319 -0.00033557068 -0.00032531508 -0.00051859626 -0.0001628007      1000000 
 2820000    1.0385287  -0.60378281     20.76211 0.00014508196 0.00017365886 7.3327517e-05 0.00018825952      1000000 
 2830000    1.0398054  -0.53378924    20.915059 -0.00020196699 -0.00034485759 -0.00013004978 -0.00013099361      1000000 
 2840000   0.95662061  -0.57656005    20.883537 -0.00026409291 -7.5126909e-05 -0.00038801057 -0.00032914125      1000000 
 2850000    1.0446321  -0.59400089    20.822655 -3.9159225e-05 -4.6249545e-05 -0.00023338238 0.00016215425      1000000 
 2860000    1.0133767  -0.55026813    20.867214 0.00022436195 0.00010159489 0.00041217364 0.00015931733      1000000 
 2870000    1.0568448  -0.57784905    20.813425 7.9827783e-05 1.0835596e-05 9.5944698e-05 0.00013270305      1000000 
 2880000   0.99903249  -0.60630408    20.763392 4.2211684e-06 0.00015588766 -6.520824e-05 -7.8015914e-05      1000000 
 2890000   0.99759228  -0.56141947    20.912284 -0.00025553345 -0.00038349168 -0.00041270964 2.9600974e-05      1000000 
 2900000   0.98143497  -0.59547065    20.861166 7.9912995e-05 0.00024050231 -3.6824992e-05 3.6061664e-05      1000000 
 2910000    1.0688105  -0.56203428    20.784868 -4.1303185e-05 -0.00018476607 0.00012401493 -6.3158419e-05      1000000 
 2920000   0.97725488  -0.56529517    20.842203 -2.8841091e-05 -0.0002561034 0.00013541503 3.4165098e-05      1000000 
 2930000    1.0209764  -0.57732287    20.749355 0.00010743929 0.00031321598 9.0079563e-05 -8.0977688e-05      1000000 
 2940000    1.0289985  -0.62480075    20.772208 -0.00012527259 -0.00020724637 -0.00018868198 2.0110588e-05      1000000 
 2950000    1.0408795  -0.61432934    20.703001 -5.1486938e-05 -0.00012013878 -9.1020046e-05 5.6698016e-05      1000000 
 2960000   0.95689414  -0.58335781    20.686245 -0.00020637055 0.00022118945 -0.00073002439 -0.00011027672      1000000 
 2970000   0.99275111  -0.57083475    20.815713 8.2251108e-05 4.8725675e-05 0.00011747081 8.0556834e-05      1000000 
 2980000   0.96993211  -0.61366826    20.861952 0.00030102914 0.00018944302 0.00063727915 7.6365251e-05      1000000 
 2990000    1.0197327  -0.57282615    20.825209 0.00026506443 0.00018008753 0.0003284657 0.00028664006      1000000 
 3000000     1.030063  -0.54509467    20.787251 -0.00034439956 -0.00049668979 -0.00051888462 -1.7624273e-05      1000000 
 3010000   0.93152064  -0.56237608    20.826001 -0.0004585808 -0.00047541728 -0.00091783135 1.7506236e-05      1000000 
 3020000    1.0022862  -0.59641041    20.859262 2.054629e-05 -8.4020629e-05 -4.2428327e-05 0.00018808783      1000000 
 3030000   0.95293185   -0.5790482    20.824022 -1.1473842e-05 0.00010061867 9.8894825e-05 -0.00023393502      1000000 
 3040000   0.98434771  -0.55830902    20.856934 0.00011459945 2.6957116e-05 0.00026193498 5.4906262e-05      1000000 
 3050000     1.015416  -0.61296895    20.804944 6.3196561e-05 -8.4157438e-05 3.1426847e-05 0.00024232027      1000000 
 3060000    0.9472884  -0.55947093    20.821337 -0.00031455135 -0.00034904381 -0.00040905312 -0.00018555711      1000000 
 3070000   0.98526214   -0.5760384    20.796999 0.00020472949 0.00026277597 0.00012243831 0.00022897419      1000000 
 3080000    1.0308403  -0.58800597    20.945065 6.905336e-05 -5.1384515e-05 0.00030191388 -4.3369283e-05      1000000 
 3090000   0.97772669  -0.55868049    20.881284 0.00034101858 0.00025724204 0.00085754289 -9.1729183e-05      1000000 
 3100000   0.95911461  -0.56956835    20.797889 8.1755647e-06 0.00048370389 -0.00045553637 -3.6408259e-06      1000000 
 3110000     1.083316  -0.61415791    20.781273 2.6739827e-05 -0.00029107362 0.00039747054 -2.617744e-05      1000000 
 3120000    1.0543806  -0.59855286     20.81919 8.7990108e-05 -0.00020209351 0.00050793961 -4.1875773e-05      1000000 
 3130000    1.0992502  -0.57714597    20.794841 0.00013109357 9.2149126e-05 0.00035532467 -5.4193089e-05      1000000 
 3140000    1.0553574  -0.60553664    20.739994 2.9290284e-05 6.7716941e-05 -6.490808e-05 8.5061992e-05      1000000 
 3150000   0.99348874  -0.58700942    20.872023 -0.00016962148 -0.00034723186 -6.1544683e-05 -0.00010008789      1000000 
 3160000   0.98696346  -0.61924851    20.753508 0.0004125645 0.00039164815 0.00052140838 0.00032463698      1000000 
 3170000    1.0089391  -0.58397088    20.804527 -9.6132779e-05 -0.00023421422 -0.00017131074 0.00011712662      1000000 
 3180000    1.0218607  -0.62099014    20.784729 8.9042055e-05 -0.0002268035 0.00025738039 0.00023654927      1000000 
 3190000    1.0402366  -0.60175541    20.756146 -0.00019093697 -0.00026962382 -0.00028724352 -1.5943584e-05      1000000 
 3200000    0.9789233  -0.56410768    20.834299 -3.6408996e-05 -0.00015305172 5.5384037e-05 -1.1559299e-05      1000000 
 3210000    1.0092727  -0.62312075    20.869042 -0.00029516275 -0.00041223409 -0.00039484808 -7.8406074e-05      1000000 
 3220000    1.0025175  -0.62915606    20.914595 -0.00019351544 -0.00046465955 -0.00013969518 2.3808406e-05      1000000 
 3230000    1.0223114  -0.56573255      20.8066 -0.00014731705 -0.00022543607 -0.0001050959 -0.00011141918      1000000 
 3240000   0.95434641  -0.57783531    20.712883 -0.00031608896 -0.00053748641 -0.00042238008 1.1599604e-05      1000000 
 3250000    1.0268741  -0.59088027    20.760658  8.45148e-05 0.00010289954 0.00027135251 -0.00012070765      1000000 
 3260000   0.99747078  -0.53771123    20.948426 0.00022775643 -3.4960793e-05 0.0005627017 0.00015552839      1000000 
 3270000    1.0808754  -0.62290066    20.826974 0.00013351104 5.7893446e-05 0.00017338784 0.00016925182      1000000 
 3280000    1.0014466  -0.59591808    20.821941 -0.00027272357 -0.00031075326 -0.00043916792 -6.8249521e-05      1000000 
 3290000    1.0319311  -0.62039036    20.794353 -0.00025791284 -0.00039924499 -0.00013168896 -0.00024280456      1000000 
 3300000   0.99924679  -0.57699612    20.830564 -0.00018853674 0.00012220245 -0.00045269387 -0.0002351188      1000000 
 3310000   0.99365747  -0.59250747    20.669812 0.00015317849 0.00049065414 -0.00031218124 0.00028106257      1000000 
 3320000   0.97386996  -0.62576198    20.841175 -5.2086389e-05 -0.00046766797 0.00015777797 0.00015363084      1000000 
 3330000    1.0616165  -0.60343535    20.883708 5.4651214e-06 -0.00012315781 0.00017787534 -3.832217e-05      1000000 
 3340000   0.89280976  -0.64977634    20.875209 -0.00021271656 -0.000414305 -5.8415381e-05 -0.00016542931      1000000 
 3350000   0.95352758  -0.59968665    20.860233 0.00017880924 0.00043007952 3.6291763e-06 0.00010271901      1000000 
 3360000    0.9795482  -0.57123524     20.82713 -0.00013423097 -0.00016574682 -0.0002420011 5.0550021e-06      1000000 
 3370000    1.0737957  -0.56596164    20.848112 -0.00016840456 -0.00010996076 -0.00039933834 4.0854074e-06      1000000 
 3380000    0.9072503  -0.57528892    20.852575 -5.7496846e-06 -3.0376557e-05 -0.00018292683 0.00019605433      1000000 
 3390000    1.0116156  -0.57409105    20.857415 -0.00015999426 -0.00026068334 -0.00017360718 -4.5692269e-05      1000000 
 3400000   0.96346551  -0.62092973    20.830052 -2.5392653e-05 -6.1576462e-05 -9.3786164e-05 7.9184668e-05      1000000 
 3410000   0.94788653   -0.5949334     20.83639 -0.00021349376 -0.00036917042 -0.00021659532 -5.4715554e-05      1000000 
 3420000    1.0194664  -0.60104918    20.753352 -0.00024072905 -0.00034937026 -0.0002873956 -8.5421289e-05      1000000 
 3430000    1.0330213  -0.51667366    20.768585 9.3885553e-06 1.661804e-05 -0.00021529873 0.00022684635      1000000 
 3440000   0.99742182  -0.58745884    20.829829 0.00025674241 0.00047892396 0.00025354469 3.7758562e-05      1000000 
 3450000    1.0023613    -0.637898    20.905541 -0.00042648343 -0.00058882057 -0.00040169986 -0.00028892987      1000000 
 3460000    1.0413455  -0.60084142    20.809807 0.00018090162 6.0405369e-05 0.00033791911 0.00014438039      1000000 
 3470000   0.94058571  -0.56298069    20.852089 5.7397768e-05 3.5572213e-05 4.3320257e-06 0.00013228906      1000000 
 3480000     0.982364  -0.53571524    20.814516 0.00013045882 0.0003351504 0.00016764569 -0.00011141962      1000000 
 3490000   0.99882113   -0.6209443     20.81286 3.1916053e-05 0.00016796529 -9.4955071e-05 2.2737937e-05      1000000 
 3500000   0.99605297  -0.55019923    20.822366 0.0001395264 -0.00030833297 0.00065320377 7.3708393e-05      1000000 
 3510000   0.97628861  -0.56827216    20.916163 0.00024889874 0.00060001323 0.00023812275 -9.1439755e-05      1000000 
 3520000    1.0211627  -0.54059122     20.91005 -0.00026236556 -0.00041715685 -0.00030231299 -6.762684e-05      1000000 
 3530000    1.0021098  -0.56216674    20.981065 -0.00012490562 -0.00038026673 0.00023511939 -0.00022956953      1000000 
 3540000   0.93974959   -0.5526824    20.824687 -8.5856857e-05 -0.00013232226  0.000177147 -0.00030239531      1000000 
 3550000    1.0048871  -0.56908084    20.808523 0.0003635927 0.00031991158 0.00057658434 0.00019428218      1000000 
 3560000    1.0166003  -0.59909151    20.802304 6.4652837e-05 0.00010015259 9.9364652e-05 -5.5587297e-06      1000000 
 3570000    1.1490235   -0.6068519     20.82422 -0.00012344253 -0.0007054939 0.00015077753 0.00018438877      1000000 
 3580000    1.1064377   -0.5912881    20.935288 0.00014475708 0.00017220146 -1.1750512e-06 0.00026324484      1000000 
 3590000   0.92475914  -0.54333675    20.961333 -0.00044269918 -0.00025718203 -0.00061499269 -0.00045592283      1000000 
 3600000    1.0007322   -0.5760955    20.852675 -0.00014088208 -0.0004553911 1.2068733e-05 2.0676117e-05      1000000 
 3610000   0.99340019  -0.58792166    20.830748 1.0586881e-05 0.00011095851 1.6823804e-05 -9.6021676e-05      1000000 
 3620000   0.99942406  -0.60124871    20.935088 -6.5604212e-05 -8.1856984e-05 -6.5049453e-05 -4.9906199e-05      1000000 
 3630000    1.0353092  -0.58654892    20.835726 7.3117495e-06 0.00012870212 -0.00028747289 0.00018070602      1000000 
 3640000   0.96980316  -0.62857029     20.74801 -0.00014944863 -4.6665015e-06 -4.8624579e-05 -0.00039505481      1000000 
 3650000   0.93727556  -0.60294943     20.76014 -0.00026738323 4.1537186e-05 -0.00058083456 -0.00026285231      1000000 
 3660000   0.97170411  -0.55605952    20.911622 5.1287444e-05 0.0001343483 -0.00010852166 0.00012803569      1000000 
 3670000   0.98596854    -0.606206    20.886805 -0.00012595145 -0.00045153426 9.7036826e-05 -2.3356921e-05      1000000 
 3680000    1.0317587  -0.54338008    21.004021 4.0907568e-05 0.00018723756 -0.00031622372 0.00025170886      1000000 
 3690000     1.038983  -0.56950129    20.694438 0.00012872578 0.00018123004 0.00021456336 -9.6160645e-06      1000000 
 3700000   0.99380948  -0.59314791    20.749075 0.00029751762 0.00033274025 0.00022294371 0.0003368689      1000000 
 3710000    1.0363386  -0.59709342    20.813253 -0.0002797649 -0.0002987585 -0.00034423616 -0.00019630005      1000000 
 3720000    1.0122054  -0.55959002    20.885426 -0.00028191125 -0.00031057362 -0.00031506152 -0.00022009862      1000000 
 3730000    1.0325268  -0.57652119    20.857268 0.00010122527 8.2560358e-05 0.00013310705 8.8008412e-05      1000000 
 3740000    1.0214372  -0.59033982    20.816365 -0.00026376701 -0.0001731349 -0.00036465692 -0.00025350922      1000000 
 3750000   0.92093817    -0.562627    20.761381 -0.00019483682 -0.00040770769 -6.2771237e-05 -0.00011403152      1000000 
 3760000   0.94301315  -0.58846711     20.94307 4.8184931e-05 0.00010585409 -7.7587863e-05 0.00011628856      1000000 
 3770000   0.93410565  -0.55953944    20.779552 -0.00024536009 -0.00024511161 -0.00020030244 -0.00029066623      1000000 
 3780000    1.0133751  -0.59255595    20.788502 1.4731907e-05 -0.00017856493 0.0001404603 8.2300355e-05      1000000 
 3790000   0.99966814  -0.57191876    20.913253 -0.00012742887 -0.00010244618 2.2529146e-05 -0.00030236959      1000000 
 3800000   0.98018424  -0.59408796    20.886127 -2.8501444e-05 4.4927626e-05 -6.0583559e-05 -6.9848398e-05      1000000 
 3810000     1.052993  -0.59382816    20.851769 1.398599e-05 -8.5269399e-05 -0.0001891125 0.00031633987      1000000 
 3820000   0.96380913  -0.56903597    20.778309 -3.2399712e-05 -6.4155579e-05 -7.437108e-06 -2.5606448e-05      1000000 
 3830000    1.0227483  -0.60519772    20.816923 -0.00013605987 -0.00026524414 -9.3184279e-06 -0.00013361705      1000000 
 3840000   0.97039712  -0.63948681    20.822933 -8.950693e-05 -0.00031507032 5.8055431e-05 -1.1505905e-05      1000000 
 3850000    1.0555737  -0.55887998    20.944913 5.3325394e-05 0.00042928622 -0.00040561904 0.00013630901      1000000 
 3860000    1.0693961  -0.55526996    20.953099 4.7432559e-05 -0.00038069148 0.00018900393 0.00033398522      1000000 
 3870000    1.0222219  -0.55238173    20.858704 0.00013368933 2.8232489e-05 0.00014892857 0.00022390695      1000000 
 3880000    1.0376965  -0.59068704    20.871738 -0.00037348964 -0.00053521444 -0.00013995088 -0.0004453036      1000000 
 3890000   0.93443891   -0.5774682    20.781375 0.00012138496 -3.7075965e-05 7.5500594e-05 0.00032573026      1000000 
 3900000   0.86985994  -0.61909504    20.807461 0.00016750651 0.00014761991 -1.1983709e-05 0.00036688332      1000000 
 3910000   0.97213854  -0.60810715    20.871685 5.5200443e-05 5.4586959e-05 8.9740816e-05 2.1273556e-05      1000000 
 3920000    0.9573734  -0.53375952    20.887117 -0.00028223515 -0.0001709545 -0.00028801146 -0.00038773949      1000000 
 3930000   0.98336583   -0.6037746    21.028903 -0.00018232972 -0.00014035998 -0.00014218976 -0.0002644394      1000000 
 3940000    1.0011339  -0.60567704    20.758253 0.0002134887 0.00050188651 0.0002460849 -0.00010750531      1000000 
 3950000   0.97928509  -0.60885329    20.862628 1.6002711e-05 7.3372098e-05 5.7562223e-05 -8.292619e-05      1000000 
 3960000    1.0135204  -0.59819315    20.900534 1.9001921e-05 -8.9510677e-05 7.2963662e-05 7.3552779e-05      1000000 
 3970000    1.0495308  -0.59929134    20.837387 5.8658379e-05 2.7510935e-05 -0.00017254912 0.00032101332      1000000 
 3980000   0.97832428  -0.57815597    20.895449 0.00016660186 5.3326561e-05 0.00039959061 4.6888395e-05      1000000 
 3990000   0.99035027  -0.60247568    20.805449 0.0003033786 0.00027738376 0.00016957801 0.00046317403      1000000 
 4000000   0.91115294  -0.56535195    20.904039 0.00016119442 -4.8808322e-05 6.3674608e-05 0.00046871698      1000000 
 4001000    1.0336418  -0.61149865    20.839329 -3.9668966e-05 0.0004096835 -8.6853732e-05 -0.00044183667      1000000 
Loop time of 173.887 on 1 procs for 3000000 steps with 400 atoms

Performance: 14906272.239 tau/day, 17252.630 timesteps/s
99.8% CPU use with 1 MPI tasks x no OpenMP threads

MPI task timing breakdown:
Section |  min time  |  avg time  |  max time  |%varavg| %total
---------------------------------------------------------------
Pair    | 32.527     | 32.527     | 32.527     |   0.0 | 18.71
Bond    | 66.381     | 66.381     | 66.381     |   0.0 | 38.18
Neigh   | 12.393     | 12.393     | 12.393     |   0.0 |  7.13
Comm    | 1.6123     | 1.6123     | 1.6123     |   0.0 |  0.93
Output  | 1.0743     | 1.0743     | 1.0743     |   0.0 |  0.62
Modify  | 55.738     | 55.738     | 55.738     |   0.0 | 32.05
Other   |            | 4.16       |            |       |  2.39

Nlocal:    400 ave 400 max 400 min
Histogram: 1 0 0 0 0 0 0 0 0 0
Nghost:    131 ave 131 max 131 min
Histogram: 1 0 0 0 0 0 0 0 0 0
Neighs:    1952 ave 1952 max 1952 min
Histogram: 1 0 0 0 0 0 0 0 0 0

Total # of neighbors = 1952
Ave neighs/atom = 4.88
Ave special neighs/atom = 1.99
Neighbor list builds = 61213
Dangerous builds = 0
Total wall time: 0:03:51
