LAMMPS (17 Nov 2016)
###
# Reference paper:
# K. Kremer and G. S. Grest
# Dynamics of entangled linear polymer melts: A molecular-dynamics simulation
# J Chem Phys 92, 5057 (1990)
###

###
# Box and units  (use LJ units and periodic boundaries)
###

units lj

atom_style angle #with stiffness

boundary        p p p

###
# Pair interactions require lists of neighbours to be calculated
###
neighbor 1.9 bin
neigh_modify every 1 delay 1 check yes

### Generate RESTART file, SPECIAL format, not a .txt file ###
### Useful if simulation crashes ###
restart 1000000 polymer.restart
#############################

#processors 2 1 1

### READ "start" data file ###
read_data lammps_input
  orthogonal box = (-50 -50 -50) to (50 50 50)
  1 by 1 by 1 MPI processor grid
  reading atoms ...
  400 atoms
  reading velocities ...
  400 velocities
  scanning bonds ...
  1 = max bonds/atom
  scanning angles ...
  1 = max angles/atom
  reading bonds ...
  398 bonds
  reading angles ...
  396 angles
  2 = max # of 1-2 neighbors
  2 = max # of 1-3 neighbors
  4 = max # of 1-4 neighbors
  6 = max # of special neighbors
######################

### READ "REstart" data file ###
#read_restart DNAunzipping.restart
######################

### reset timestep ###
reset_timestep 0
######################

###
# Define groups (atom type 1 is group 'all')
###
#group all type *

###
# Dump configs - "simple dumpings"
###

###
# Dump configs + box coords
###
#dump   1   all   custom   10000   DNAunzipping.dump.*  id  x y z  ix iy iz
#dump_modify   1   format "%d %.5f %.5f %.5f %d %d %d"
dump   id all atom 1000 dump.DNAunzipping

###################################################################
# Stiffness term
#
# E = K * (1+cos(theta)), K>0
#
angle_style   cosine
angle_coeff   1 10.0
###################################################################

###################################################################
# Pair interaction between non-bonded atoms
#
#  soft potential, for PUSHING apart overlapping atoms
#  potential E=A*(1 + cos(pi*r/r_c))
#
#  1.12246 = 2^(1/6) is the cut-off r_c

pair_style     soft 1.12246152962189

#
#  pair_coeff for soft, specify 3:
#    * atom type interacting with
#    * atom type
#    * A
#

pair_coeff * * 100.0 1.12246152962189

###################################################################
# Pair interaction between bonded atoms
#
# Harmonic potential:
#
#  E= K * (R-R0)^2
#

bond_style   harmonic

#
# For style harmonic, specify:
#   * bond type
#   * K (energy/distance^2)
#   * R0 (distance)
#

bond_coeff   1   60.0   1.1

###################################################


###
# Set up fixes
###

fix 1 all   nve   ###NVE ensemble
fix 2 all   langevin   1.0 1.0   1.0   15   ###Langevin integrator Tstart Tstop 1/friction rndseed

##### Sample thermodynamic info  (temperature, energy, pressure, etc.) #####
thermo 10000
thermo_style   custom   step  temp  epair  emol  press pxx pyy pzz  vol
############################################################################

###
# set timestep of integrator
###
timestep 0.01 #0.012

###
# run integration for a number of steps
###
run 1000
Neighbor list info ...
  1 neighbor list requests
  update every 1 steps, delay 1 steps, check yes
  max neighbors/atom: 2000, page size: 100000
  master list distance cutoff = 3.02246
  ghost atom cutoff = 3.02246
  binsize = 1.51123 -> bins = 67 67 67
Memory usage per processor = 6.94894 Mbytes
Step Temp E_pair E_mol Press Pxx Pyy Pzz Volume 
       0            0    176.82657    10.730873  0.058863411  0.071581186   0.06895181  0.036057238      1000000 
    1000   0.98401172 0.00048469234    1.8058753 7.3888648e-05 0.00015160201 5.0988947e-05 1.9074984e-05      1000000 
Loop time of 0.072911 on 1 procs for 1000 steps with 400 atoms

Performance: 11850059.861 tau/day, 13715.347 timesteps/s
99.0% CPU use with 1 MPI tasks x no OpenMP threads

MPI task timing breakdown:
Section |  min time  |  avg time  |  max time  |%varavg| %total
---------------------------------------------------------------
Pair    | 0.00635    | 0.00635    | 0.00635    |   0.0 |  8.71
Bond    | 0.019872   | 0.019872   | 0.019872   |   0.0 | 27.25
Neigh   | 0.025081   | 0.025081   | 0.025081   |   0.0 | 34.40
Comm    | 0.00043726 | 0.00043726 | 0.00043726 |   0.0 |  0.60
Output  | 0.00032091 | 0.00032091 | 0.00032091 |   0.0 |  0.44
Modify  | 0.019234   | 0.019234   | 0.019234   |   0.0 | 26.38
Other   |            | 0.001616   |            |       |  2.22

Nlocal:    400 ave 400 max 400 min
Histogram: 1 0 0 0 0 0 0 0 0 0
Nghost:    0 ave 0 max 0 min
Histogram: 1 0 0 0 0 0 0 0 0 0
Neighs:    182 ave 182 max 182 min
Histogram: 1 0 0 0 0 0 0 0 0 0

Total # of neighbors = 182
Ave neighs/atom = 0.455
Ave special neighs/atom = 5.94
Neighbor list builds = 71
Dangerous builds = 0

###################################################################
# Pair interaction between non-bonded atoms
#
#  Lennard-Jones 12-6 potential with cutoff:
#  potential E=4epsilon[ (sigma/r)^12 - (sigma/r)^6]  for r<r_cut
#
#  1.12246 = 2^(1/6) is the minimum of the potential

pair_style      lj/cut 1.12246152962189

#
#  pair_modify shift yes adds a constant to the potential such
#  that E(r_cut)=0. Forces remains unchanged.
#

pair_modify     shift yes

#
#  pair_coeff for lj/cut, specify 4:
#    * atom type interacting with
#    * atom type
#    * epsilon (energy units)
#    * sigma (distance units)
#

pair_coeff      * * 1.0 1.0 1.12246152962189

include pair.unzipping.equilibration
 pair_coeff            1           1   3.0000000000000000        1.0000000000000000        2.5000000000000000
 pair_coeff            2           2   3.0000000000000000        1.0000000000000000        2.5000000000000000
 pair_coeff            3           3   3.0000000000000000        1.0000000000000000        2.5000000000000000
 pair_coeff            4           4   3.0000000000000000        1.0000000000000000        2.5000000000000000
 pair_coeff            5           5   3.0000000000000000        1.0000000000000000        2.5000000000000000
 pair_coeff            6           6   3.0000000000000000        1.0000000000000000        2.5000000000000000
 pair_coeff            7           7   3.0000000000000000        1.0000000000000000        2.5000000000000000
 pair_coeff            8           8   3.0000000000000000        1.0000000000000000        2.5000000000000000
 pair_coeff            9           9   3.0000000000000000        1.0000000000000000        2.5000000000000000
 pair_coeff           10          10   3.0000000000000000        1.0000000000000000        2.5000000000000000
 pair_coeff           11          11   3.0000000000000000        1.0000000000000000        2.5000000000000000
 pair_coeff           12          12   3.0000000000000000        1.0000000000000000        2.5000000000000000
 pair_coeff           13          13   3.0000000000000000        1.0000000000000000        2.5000000000000000
 pair_coeff           14          14   3.0000000000000000        1.0000000000000000        2.5000000000000000
 pair_coeff           15          15   3.0000000000000000        1.0000000000000000        2.5000000000000000
 pair_coeff           16          16   3.0000000000000000        1.0000000000000000        2.5000000000000000
 pair_coeff           17          17   3.0000000000000000        1.0000000000000000        2.5000000000000000
 pair_coeff           18          18   3.0000000000000000        1.0000000000000000        2.5000000000000000
 pair_coeff           19          19   3.0000000000000000        1.0000000000000000        2.5000000000000000
 pair_coeff           20          20   3.0000000000000000        1.0000000000000000        2.5000000000000000
 pair_coeff           21          21   3.0000000000000000        1.0000000000000000        2.5000000000000000
 pair_coeff           22          22   3.0000000000000000        1.0000000000000000        2.5000000000000000
 pair_coeff           23          23   3.0000000000000000        1.0000000000000000        2.5000000000000000
 pair_coeff           24          24   3.0000000000000000        1.0000000000000000        2.5000000000000000
 pair_coeff           25          25   3.0000000000000000        1.0000000000000000        2.5000000000000000
 pair_coeff           26          26   3.0000000000000000        1.0000000000000000        2.5000000000000000
 pair_coeff           27          27   3.0000000000000000        1.0000000000000000        2.5000000000000000
 pair_coeff           28          28   3.0000000000000000        1.0000000000000000        2.5000000000000000
 pair_coeff           29          29   3.0000000000000000        1.0000000000000000        2.5000000000000000
 pair_coeff           30          30   3.0000000000000000        1.0000000000000000        2.5000000000000000
 pair_coeff           31          31   3.0000000000000000        1.0000000000000000        2.5000000000000000
 pair_coeff           32          32   3.0000000000000000        1.0000000000000000        2.5000000000000000
 pair_coeff           33          33   3.0000000000000000        1.0000000000000000        2.5000000000000000
 pair_coeff           34          34   3.0000000000000000        1.0000000000000000        2.5000000000000000
 pair_coeff           35          35   3.0000000000000000        1.0000000000000000        2.5000000000000000
 pair_coeff           36          36   3.0000000000000000        1.0000000000000000        2.5000000000000000
 pair_coeff           37          37   3.0000000000000000        1.0000000000000000        2.5000000000000000
 pair_coeff           38          38   3.0000000000000000        1.0000000000000000        2.5000000000000000
 pair_coeff           39          39   3.0000000000000000        1.0000000000000000        2.5000000000000000
 pair_coeff           40          40   3.0000000000000000        1.0000000000000000        2.5000000000000000
 pair_coeff           41          41   3.0000000000000000        1.0000000000000000        2.5000000000000000
 pair_coeff           42          42   3.0000000000000000        1.0000000000000000        2.5000000000000000
 pair_coeff           43          43   3.0000000000000000        1.0000000000000000        2.5000000000000000
 pair_coeff           44          44   3.0000000000000000        1.0000000000000000        2.5000000000000000
 pair_coeff           45          45   3.0000000000000000        1.0000000000000000        2.5000000000000000
 pair_coeff           46          46   3.0000000000000000        1.0000000000000000        2.5000000000000000
 pair_coeff           47          47   3.0000000000000000        1.0000000000000000        2.5000000000000000
 pair_coeff           48          48   3.0000000000000000        1.0000000000000000        2.5000000000000000
 pair_coeff           49          49   3.0000000000000000        1.0000000000000000        2.5000000000000000
 pair_coeff           50          50   3.0000000000000000        1.0000000000000000        2.5000000000000000
 pair_coeff           51          51   3.0000000000000000        1.0000000000000000        2.5000000000000000
 pair_coeff           52          52   3.0000000000000000        1.0000000000000000        2.5000000000000000
 pair_coeff           53          53   3.0000000000000000        1.0000000000000000        2.5000000000000000
 pair_coeff           54          54   3.0000000000000000        1.0000000000000000        2.5000000000000000
 pair_coeff           55          55   3.0000000000000000        1.0000000000000000        2.5000000000000000
 pair_coeff           56          56   3.0000000000000000        1.0000000000000000        2.5000000000000000
 pair_coeff           57          57   3.0000000000000000        1.0000000000000000        2.5000000000000000
 pair_coeff           58          58   3.0000000000000000        1.0000000000000000        2.5000000000000000
 pair_coeff           59          59   3.0000000000000000        1.0000000000000000        2.5000000000000000
 pair_coeff           60          60   3.0000000000000000        1.0000000000000000        2.5000000000000000
 pair_coeff           61          61   3.0000000000000000        1.0000000000000000        2.5000000000000000
 pair_coeff           62          62   3.0000000000000000        1.0000000000000000        2.5000000000000000
 pair_coeff           63          63   3.0000000000000000        1.0000000000000000        2.5000000000000000
 pair_coeff           64          64   3.0000000000000000        1.0000000000000000        2.5000000000000000
 pair_coeff           65          65   3.0000000000000000        1.0000000000000000        2.5000000000000000
 pair_coeff           66          66   3.0000000000000000        1.0000000000000000        2.5000000000000000
 pair_coeff           67          67   3.0000000000000000        1.0000000000000000        2.5000000000000000
 pair_coeff           68          68   3.0000000000000000        1.0000000000000000        2.5000000000000000
 pair_coeff           69          69   3.0000000000000000        1.0000000000000000        2.5000000000000000
 pair_coeff           70          70   3.0000000000000000        1.0000000000000000        2.5000000000000000
 pair_coeff           71          71   3.0000000000000000        1.0000000000000000        2.5000000000000000
 pair_coeff           72          72   3.0000000000000000        1.0000000000000000        2.5000000000000000
 pair_coeff           73          73   3.0000000000000000        1.0000000000000000        2.5000000000000000
 pair_coeff           74          74   3.0000000000000000        1.0000000000000000        2.5000000000000000
 pair_coeff           75          75   3.0000000000000000        1.0000000000000000        2.5000000000000000
 pair_coeff           76          76   3.0000000000000000        1.0000000000000000        2.5000000000000000
 pair_coeff           77          77   3.0000000000000000        1.0000000000000000        2.5000000000000000
 pair_coeff           78          78   3.0000000000000000        1.0000000000000000        2.5000000000000000
 pair_coeff           79          79   3.0000000000000000        1.0000000000000000        2.5000000000000000
 pair_coeff           80          80   3.0000000000000000        1.0000000000000000        2.5000000000000000
 pair_coeff           81          81   3.0000000000000000        1.0000000000000000        2.5000000000000000
 pair_coeff           82          82   3.0000000000000000        1.0000000000000000        2.5000000000000000
 pair_coeff           83          83   3.0000000000000000        1.0000000000000000        2.5000000000000000
 pair_coeff           84          84   3.0000000000000000        1.0000000000000000        2.5000000000000000
 pair_coeff           85          85   3.0000000000000000        1.0000000000000000        2.5000000000000000
 pair_coeff           86          86   3.0000000000000000        1.0000000000000000        2.5000000000000000
 pair_coeff           87          87   3.0000000000000000        1.0000000000000000        2.5000000000000000
 pair_coeff           88          88   3.0000000000000000        1.0000000000000000        2.5000000000000000
 pair_coeff           89          89   3.0000000000000000        1.0000000000000000        2.5000000000000000
 pair_coeff           90          90   3.0000000000000000        1.0000000000000000        2.5000000000000000
 pair_coeff           91          91   3.0000000000000000        1.0000000000000000        2.5000000000000000
 pair_coeff           92          92   3.0000000000000000        1.0000000000000000        2.5000000000000000
 pair_coeff           93          93   3.0000000000000000        1.0000000000000000        2.5000000000000000
 pair_coeff           94          94   3.0000000000000000        1.0000000000000000        2.5000000000000000
 pair_coeff           95          95   3.0000000000000000        1.0000000000000000        2.5000000000000000
 pair_coeff           96          96   3.0000000000000000        1.0000000000000000        2.5000000000000000
 pair_coeff           97          97   3.0000000000000000        1.0000000000000000        2.5000000000000000
 pair_coeff           98          98   3.0000000000000000        1.0000000000000000        2.5000000000000000
 pair_coeff           99          99   3.0000000000000000        1.0000000000000000        2.5000000000000000
 pair_coeff          100         100   3.0000000000000000        1.0000000000000000        2.5000000000000000
 pair_coeff          101         101   3.0000000000000000        1.0000000000000000        2.5000000000000000
 pair_coeff          102         102   3.0000000000000000        1.0000000000000000        2.5000000000000000
 pair_coeff          103         103   3.0000000000000000        1.0000000000000000        2.5000000000000000
 pair_coeff          104         104   3.0000000000000000        1.0000000000000000        2.5000000000000000
 pair_coeff          105         105   3.0000000000000000        1.0000000000000000        2.5000000000000000
 pair_coeff          106         106   3.0000000000000000        1.0000000000000000        2.5000000000000000
 pair_coeff          107         107   3.0000000000000000        1.0000000000000000        2.5000000000000000
 pair_coeff          108         108   3.0000000000000000        1.0000000000000000        2.5000000000000000
 pair_coeff          109         109   3.0000000000000000        1.0000000000000000        2.5000000000000000
 pair_coeff          110         110   3.0000000000000000        1.0000000000000000        2.5000000000000000
 pair_coeff          111         111   3.0000000000000000        1.0000000000000000        2.5000000000000000
 pair_coeff          112         112   3.0000000000000000        1.0000000000000000        2.5000000000000000
 pair_coeff          113         113   3.0000000000000000        1.0000000000000000        2.5000000000000000
 pair_coeff          114         114   3.0000000000000000        1.0000000000000000        2.5000000000000000
 pair_coeff          115         115   3.0000000000000000        1.0000000000000000        2.5000000000000000
 pair_coeff          116         116   3.0000000000000000        1.0000000000000000        2.5000000000000000
 pair_coeff          117         117   3.0000000000000000        1.0000000000000000        2.5000000000000000
 pair_coeff          118         118   3.0000000000000000        1.0000000000000000        2.5000000000000000
 pair_coeff          119         119   3.0000000000000000        1.0000000000000000        2.5000000000000000
 pair_coeff          120         120   3.0000000000000000        1.0000000000000000        2.5000000000000000
 pair_coeff          121         121   3.0000000000000000        1.0000000000000000        2.5000000000000000
 pair_coeff          122         122   3.0000000000000000        1.0000000000000000        2.5000000000000000
 pair_coeff          123         123   3.0000000000000000        1.0000000000000000        2.5000000000000000
 pair_coeff          124         124   3.0000000000000000        1.0000000000000000        2.5000000000000000
 pair_coeff          125         125   3.0000000000000000        1.0000000000000000        2.5000000000000000
 pair_coeff          126         126   3.0000000000000000        1.0000000000000000        2.5000000000000000
 pair_coeff          127         127   3.0000000000000000        1.0000000000000000        2.5000000000000000
 pair_coeff          128         128   3.0000000000000000        1.0000000000000000        2.5000000000000000
 pair_coeff          129         129   3.0000000000000000        1.0000000000000000        2.5000000000000000
 pair_coeff          130         130   3.0000000000000000        1.0000000000000000        2.5000000000000000
 pair_coeff          131         131   3.0000000000000000        1.0000000000000000        2.5000000000000000
 pair_coeff          132         132   3.0000000000000000        1.0000000000000000        2.5000000000000000
 pair_coeff          133         133   3.0000000000000000        1.0000000000000000        2.5000000000000000
 pair_coeff          134         134   3.0000000000000000        1.0000000000000000        2.5000000000000000
 pair_coeff          135         135   3.0000000000000000        1.0000000000000000        2.5000000000000000
 pair_coeff          136         136   3.0000000000000000        1.0000000000000000        2.5000000000000000
 pair_coeff          137         137   3.0000000000000000        1.0000000000000000        2.5000000000000000
 pair_coeff          138         138   3.0000000000000000        1.0000000000000000        2.5000000000000000
 pair_coeff          139         139   3.0000000000000000        1.0000000000000000        2.5000000000000000
 pair_coeff          140         140   3.0000000000000000        1.0000000000000000        2.5000000000000000
 pair_coeff          141         141   3.0000000000000000        1.0000000000000000        2.5000000000000000
 pair_coeff          142         142   3.0000000000000000        1.0000000000000000        2.5000000000000000
 pair_coeff          143         143   3.0000000000000000        1.0000000000000000        2.5000000000000000
 pair_coeff          144         144   3.0000000000000000        1.0000000000000000        2.5000000000000000
 pair_coeff          145         145   3.0000000000000000        1.0000000000000000        2.5000000000000000
 pair_coeff          146         146   3.0000000000000000        1.0000000000000000        2.5000000000000000
 pair_coeff          147         147   3.0000000000000000        1.0000000000000000        2.5000000000000000
 pair_coeff          148         148   3.0000000000000000        1.0000000000000000        2.5000000000000000
 pair_coeff          149         149   3.0000000000000000        1.0000000000000000        2.5000000000000000
 pair_coeff          150         150   3.0000000000000000        1.0000000000000000        2.5000000000000000
 pair_coeff          151         151   3.0000000000000000        1.0000000000000000        2.5000000000000000
 pair_coeff          152         152   3.0000000000000000        1.0000000000000000        2.5000000000000000
 pair_coeff          153         153   3.0000000000000000        1.0000000000000000        2.5000000000000000
 pair_coeff          154         154   3.0000000000000000        1.0000000000000000        2.5000000000000000
 pair_coeff          155         155   3.0000000000000000        1.0000000000000000        2.5000000000000000
 pair_coeff          156         156   3.0000000000000000        1.0000000000000000        2.5000000000000000
 pair_coeff          157         157   3.0000000000000000        1.0000000000000000        2.5000000000000000
 pair_coeff          158         158   3.0000000000000000        1.0000000000000000        2.5000000000000000
 pair_coeff          159         159   3.0000000000000000        1.0000000000000000        2.5000000000000000
 pair_coeff          160         160   3.0000000000000000        1.0000000000000000        2.5000000000000000
 pair_coeff          161         161   3.0000000000000000        1.0000000000000000        2.5000000000000000
 pair_coeff          162         162   3.0000000000000000        1.0000000000000000        2.5000000000000000
 pair_coeff          163         163   3.0000000000000000        1.0000000000000000        2.5000000000000000
 pair_coeff          164         164   3.0000000000000000        1.0000000000000000        2.5000000000000000
 pair_coeff          165         165   3.0000000000000000        1.0000000000000000        2.5000000000000000
 pair_coeff          166         166   3.0000000000000000        1.0000000000000000        2.5000000000000000
 pair_coeff          167         167   3.0000000000000000        1.0000000000000000        2.5000000000000000
 pair_coeff          168         168   3.0000000000000000        1.0000000000000000        2.5000000000000000
 pair_coeff          169         169   3.0000000000000000        1.0000000000000000        2.5000000000000000
 pair_coeff          170         170   3.0000000000000000        1.0000000000000000        2.5000000000000000
 pair_coeff          171         171   3.0000000000000000        1.0000000000000000        2.5000000000000000
 pair_coeff          172         172   3.0000000000000000        1.0000000000000000        2.5000000000000000
 pair_coeff          173         173   3.0000000000000000        1.0000000000000000        2.5000000000000000
 pair_coeff          174         174   3.0000000000000000        1.0000000000000000        2.5000000000000000
 pair_coeff          175         175   3.0000000000000000        1.0000000000000000        2.5000000000000000
 pair_coeff          176         176   3.0000000000000000        1.0000000000000000        2.5000000000000000
 pair_coeff          177         177   3.0000000000000000        1.0000000000000000        2.5000000000000000
 pair_coeff          178         178   3.0000000000000000        1.0000000000000000        2.5000000000000000
 pair_coeff          179         179   3.0000000000000000        1.0000000000000000        2.5000000000000000
 pair_coeff          180         180   3.0000000000000000        1.0000000000000000        2.5000000000000000
 pair_coeff          181         181   3.0000000000000000        1.0000000000000000        2.5000000000000000
 pair_coeff          182         182   3.0000000000000000        1.0000000000000000        2.5000000000000000
 pair_coeff          183         183   3.0000000000000000        1.0000000000000000        2.5000000000000000
 pair_coeff          184         184   3.0000000000000000        1.0000000000000000        2.5000000000000000
 pair_coeff          185         185   3.0000000000000000        1.0000000000000000        2.5000000000000000
 pair_coeff          186         186   3.0000000000000000        1.0000000000000000        2.5000000000000000
 pair_coeff          187         187   3.0000000000000000        1.0000000000000000        2.5000000000000000
 pair_coeff          188         188   3.0000000000000000        1.0000000000000000        2.5000000000000000
 pair_coeff          189         189   3.0000000000000000        1.0000000000000000        2.5000000000000000
 pair_coeff          190         190   3.0000000000000000        1.0000000000000000        2.5000000000000000
 pair_coeff          191         191   3.0000000000000000        1.0000000000000000        2.5000000000000000
 pair_coeff          192         192   3.0000000000000000        1.0000000000000000        2.5000000000000000
 pair_coeff          193         193   3.0000000000000000        1.0000000000000000        2.5000000000000000
 pair_coeff          194         194   3.0000000000000000        1.0000000000000000        2.5000000000000000
 pair_coeff          195         195   3.0000000000000000        1.0000000000000000        2.5000000000000000
 pair_coeff          196         196   3.0000000000000000        1.0000000000000000        2.5000000000000000
 pair_coeff          197         197   3.0000000000000000        1.0000000000000000        2.5000000000000000
 pair_coeff          198         198   3.0000000000000000        1.0000000000000000        2.5000000000000000
 pair_coeff          199         199   3.0000000000000000        1.0000000000000000        2.5000000000000000
 pair_coeff          200         200   3.0000000000000000        1.0000000000000000        2.5000000000000000

###################################################################
# Pair interaction between bonded atoms
#
# Fene potential + Lennard Jones 12-6:
#
#  E= - 0.5 K R0^2 ln[ 1- (r/R0)^2]
#     + 4epsilon[ (sigma/r)^12 - (sigma/r)^6] + epsilon
#

bond_style   fene

#
# For style fene, specify:
#   * bond type
#   * K (energy/distance^2)
#   * R0 (distance)
#   * epsilon (energy)  (LJ component)
#   * sigma (distance)  (LJ component)
#

special_bonds fene #<=== I M P O R T A N T (new command)
  2 = max # of 1-2 neighbors
  2 = max # of special neighbors

bond_coeff   1   30.0   1.6   1.0   1.0

###################################################

###
# Set up fixes
###

fix 1 all   nve   ###NVE ensemble
fix 2 all   langevin   1.0 1.0   1.0  69   ###Langevin integrator Tstart Tstop 1/friction rndseed

##### Sample thermodynamic info  (temperature, energy, pressure, etc.) #####
thermo 10000
thermo_style   custom   step  temp  epair  emol  press pxx pyy pzz  vol
############################################################################

###
# set timestep of integrator
###
timestep 0.01

###
# run integration for a number of steps
###
run 1000000
Neighbor list info ...
  1 neighbor list requests
  update every 1 steps, delay 1 steps, check yes
  max neighbors/atom: 2000, page size: 100000
  master list distance cutoff = 4.4
  ghost atom cutoff = 4.4
  binsize = 2.2 -> bins = 46 46 46
Memory usage per processor = 6.69894 Mbytes
Step Temp E_pair E_mol Press Pxx Pyy Pzz Volume 
    1000   0.98401172 1.834466e-05    27.583939 -0.0085375823 -0.008490246 -0.0095241359 -0.0075983649      1000000 
   10000   0.95303143 -0.00095012841    21.146819 -0.00053577123 -0.00030831306 -0.000650204 -0.00064879663      1000000 
   20000   0.99827929 -0.070519947    20.964814 -1.9309308e-05 7.2174242e-05 -1.8479011e-05 -0.00011162315      1000000 
   30000    1.0372929 -0.054041315    21.077057 0.0001137275 0.00012703653 0.00035140336 -0.00013725738      1000000 
   40000    1.0087454 -0.087853782    21.018102 -0.00014048887 -6.873122e-05 -5.7612231e-05 -0.00029512315      1000000 
   50000   0.97720961  -0.10591685    20.971043 0.00021885438 0.00041877392 0.00015587362 8.191558e-05      1000000 
   60000    1.0297749  -0.16313415    21.010751 0.00052371858 0.00048193651 0.00030815111 0.00078106812      1000000 
   70000    1.0277272  -0.16975454    21.033294 -5.9239298e-05 3.5361039e-05 -0.00029885982 8.5780886e-05      1000000 
   80000   0.93489059  -0.16504921    20.940752 -5.012652e-05 -0.00018309205 -2.1059251e-06 3.481841e-05      1000000 
   90000   0.96758548  -0.25161398    20.968309 0.0001244162 0.00029954073 0.00011558959 -4.1881716e-05      1000000 
  100000     1.079399  -0.26021913    20.880817 6.6753276e-05 0.00014268342 0.00023302991 -0.00017545351      1000000 
  110000     0.953026  -0.29192938    20.930804 0.00033042351 0.00019369548 0.00016160254 0.00063597252      1000000 
  120000   0.99193766  -0.29183782     21.00206 -0.00016983576 -0.00030203534 -8.3343899e-05 -0.00012412803      1000000 
  130000   0.98371993   -0.3298923    20.934864 -0.00056116902 -0.00051990829 -0.00054075886 -0.00062283992      1000000 
  140000    1.0344936  -0.32513189    20.959235 0.0001000928 -0.00018959005 0.00015474277 0.0003351257      1000000 
  150000   0.96875733  -0.38644493    20.961825 7.9927747e-05 0.00011085924 9.6565502e-05 3.2358496e-05      1000000 
  160000   0.96852979  -0.42383707    20.895542 1.3666166e-05 -0.00021678523 2.396136e-05 0.00023382237      1000000 
  170000    0.9634327  -0.43382263    20.931464 -0.00023926501 -0.0002892405 -0.0002200332 -0.00020852132      1000000 
  180000    1.0743786  -0.45501761    20.922412 0.00056706135 0.0003931512 0.00034812203 0.00095991083      1000000 
  190000     1.036267  -0.52683439    20.985302 0.00021195733 0.00054252185 1.8814742e-05 7.4535393e-05      1000000 
  200000    1.0504343   -0.5051432    20.889387 1.532231e-05 0.0001363895 -0.00013563465 4.5212081e-05      1000000 
  210000    1.0495491  -0.54830287    20.933077 -6.8218541e-05 0.00031707554 -0.00044979584 -7.1935326e-05      1000000 
  220000   0.99216696  -0.56214972    20.877245 -0.00014667343 -9.4630297e-05 -6.795242e-05 -0.00027743756      1000000 
  230000   0.96266544   -0.6337096    20.821993 -0.00015074127 -0.00051839844 0.00033806357 -0.00027188893      1000000 
  240000    1.0200658  -0.64944952    20.924368 5.1461359e-05 -3.2817909e-05 0.00017938374 7.8182502e-06      1000000 
  250000    1.0205133  -0.77792402    20.856056 -7.1346854e-07 0.00010366029 1.9408272e-06 -0.00010774152      1000000 
  260000   0.96302406  -0.80316049    20.874062 -6.7268653e-05 -0.00028974089 0.00022725559 -0.00013932066      1000000 
  270000    1.0225352  -0.83641652    20.783402 -0.0002436922 -0.00016750178 -0.00036074883 -0.00020282598      1000000 
  280000   0.98447277  -0.80831172    20.952128 -0.00022169472 -4.4192864e-05 -0.00037476687 -0.00024612441      1000000 
  290000    1.0546626  -0.86836319     20.79737 -6.5207891e-06 -0.00034454538 0.00054756993 -0.00022258691      1000000 
  300000   0.98163961  -0.87798114    20.795978 0.0001980416 5.2023347e-05 0.0006816586 -0.00013955714      1000000 
  310000    1.0103939  -0.88396618    20.957597 -0.00021547981 0.00015547886 -0.00034302877 -0.00045888952      1000000 
  320000    1.0288848  -0.89822721    20.840367 5.5183357e-05 0.00011269799 -0.00022003259 0.00027288467      1000000 
  330000    1.0763355  -0.97022464    20.847986 -2.3645758e-05 -0.00023772954 6.8675726e-05 9.8116542e-05      1000000 
  340000   0.98017672   -1.0236317    20.883815 0.00015908409 7.9223245e-06 0.0002031021 0.00026622786      1000000 
  350000   0.94611423  -0.97365609     20.78074 0.00022780555 9.8217359e-06 0.00023563536 0.00043795956      1000000 
  360000    1.0307014   -1.1235484    20.804849 -0.00014167413 -0.00030102758 -8.0904126e-05 -4.309067e-05      1000000 
  370000   0.98014302   -1.1491951    20.715264 -9.8608922e-05 -5.9390337e-05 -1.7210412e-05 -0.00021922602      1000000 
  380000    1.0283598   -1.1677382     20.65879 0.00051590401 0.00048194947 0.00068308632 0.00038267625      1000000 
  390000    1.0433253   -1.2154057    20.794933 5.2094351e-05 -7.4201421e-07 -1.2939856e-05 0.00016996492      1000000 
  400000    1.0716823   -1.1759641    20.673108 -0.00019756633 -0.00037435613 -1.2787089e-07 -0.000218215      1000000 
  410000    1.0558832    -1.176045    20.782122 -0.00016535019 0.00019019935 -0.00026607888 -0.00042017105      1000000 
  420000   0.97205822   -1.1510127    20.790958 -6.9247387e-05 -0.00030136972 9.4524379e-05 -8.9681842e-07      1000000 
  430000    1.0086231   -1.2214085    20.799514 -4.2050138e-05 -8.9090796e-05 6.2284217e-05 -9.9343834e-05      1000000 
  440000    1.0287339   -1.1852031    20.782952 -0.00040551005 -0.00056890392 4.2754195e-05 -0.00069038044      1000000 
  450000   0.97493904   -1.1716524    20.817294 0.00030841715 0.00036237392 0.00026596948 0.00029690805      1000000 
  460000    1.0993504   -1.1812622    20.811332  0.000447894 0.00061718714 0.00045725345 0.00026924142      1000000 
  470000    1.0773038   -1.1415938    20.767782 -0.00010384531 -0.00014705896 -8.8737786e-05 -7.5739176e-05      1000000 
  480000    1.0244323   -1.1651779    20.813964 0.00020655663 0.00020384252 0.00019986656 0.0002159608      1000000 
  490000    1.0513591   -1.1706266    20.798663 4.7772659e-05 4.0152835e-05 -0.00012177667 0.00022494182      1000000 
  500000    1.0367095   -1.1954342    20.715459 8.4771375e-05 0.00013991164 -0.00010675209 0.00022115457      1000000 
  510000       1.0007   -1.1397171    20.705845 0.00028195983 0.00016918824 0.00059824349 7.8447753e-05      1000000 
  520000    1.0114566   -1.2078354    20.803186 -0.00013703407 -0.0003139187 2.7414428e-05 -0.00012459794      1000000 
  530000    1.0014118   -1.2135524    20.715366 -4.147206e-05 0.00012929571 8.7552519e-05 -0.00034126441      1000000 
  540000   0.97684075    -1.200157    20.852972 -6.3707216e-05 0.0001695116 -0.00036420397 3.5707174e-06      1000000 
  550000   0.93697896   -1.2004144     20.84104 8.7187242e-05 -0.00016064972 0.00035011744 7.2094011e-05      1000000 
  560000    1.0633273   -1.1973506    20.831993 0.00032364806 -6.9348478e-06 0.0001837853 0.00079409373      1000000 
  570000   0.97150311   -1.1306608    20.801363 8.1516217e-05 0.0003239948 9.1814962e-05 -0.00017126111      1000000 
  580000   0.99546693   -1.1648672     20.80209 6.1076832e-05 -0.00012589154 0.00029682731 1.2294728e-05      1000000 
  590000    1.0350329   -1.2158254      20.7286 0.00019558366 0.00032304247 7.0468891e-05 0.00019323961      1000000 
  600000    1.0113521   -1.1898868    20.780193 -4.0903593e-05 -8.217123e-05 0.00010085284 -0.00014139239      1000000 
  610000   0.97764737     -1.11134     20.71649 -0.00019159928 -0.00043924555 -0.00024093368 0.0001053814      1000000 
  620000   0.99382595   -1.2305925    20.728223 0.00035342506 0.0001724579 0.00062954162 0.00025827566      1000000 
  630000   0.98589106   -1.1628858    20.833001 1.6863332e-05 2.3433274e-05 8.5897956e-05 -5.8741233e-05      1000000 
  640000    1.0223579   -1.2013808    20.690441 -5.6147158e-05 7.549662e-05 -0.0002939163 4.9978203e-05      1000000 
  650000    1.0458457    -1.108724    20.751972 -9.8215538e-06 5.9609446e-05 0.00023387926 -0.00032295337      1000000 
  660000    1.0087288   -1.1965581    20.763604 0.0001123485 0.00022392601 0.00018617696 -7.3057464e-05      1000000 
  670000    1.0430983   -1.1885733    20.762204 0.00012797901 0.00027713763 6.0643573e-05 4.6155828e-05      1000000 
  680000    0.9993581   -1.1045323    20.898194 3.3397854e-05 -0.00033540418 0.00048233429 -4.6736556e-05      1000000 
  690000    1.0637066   -1.1614508    20.705621 0.00030747269 6.8941161e-05 0.00044216709 0.00041130981      1000000 
  700000    1.0089988   -1.0805814    20.706915 0.00017292927 0.00021834616 0.00015139735 0.0001490443      1000000 
  710000    1.0221236    -1.106961    20.700432 0.00028593204 3.9336241e-05 0.0002568197 0.00056164017      1000000 
  720000   0.99230774    -1.157489    20.690525 0.00042631974 0.00026027361 0.00052769262 0.00049099301      1000000 
  730000    1.0403263   -1.1357397    20.816265 0.00010289401 1.9411091e-05 0.00025717214 3.2098792e-05      1000000 
  740000     1.059799   -1.1649703    20.789818 -0.00022158136 -0.00021835172 -0.00022715932 -0.00021923303      1000000 
  750000   0.95513092   -1.1897068     20.73847 -8.7341598e-05 -0.00017463826 -0.00033672668 0.00024934015      1000000 
  760000    1.0148454   -1.1788473    20.698009 5.2530049e-05 -1.9698377e-05 -0.00011792436 0.00029521288      1000000 
  770000   0.93698782   -1.2043984    20.797311 8.0837261e-05 0.00021759615 0.00035282736 -0.00032791173      1000000 
  780000   0.95727866    -1.185676    20.684171 0.00031530407 2.1776056e-05 0.00016704642 0.00075708972      1000000 
  790000     1.011887   -1.1493715    20.664554 -0.00011465416 -2.2234966e-05 -0.00011589849 -0.00020582902      1000000 
  800000    1.0221713   -1.1048712    20.831629 5.4609451e-05 0.00020650072 -0.00027660576 0.0002339334      1000000 
  810000    1.0002599   -1.1910674    20.794938 -7.6198308e-05 -0.00013028355 -1.3724299e-06 -9.6938947e-05      1000000 
  820000   0.98017554   -1.1853225    20.737708 -0.00019116107 -0.00027851426 -0.00042515477 0.00013018582      1000000 
  830000   0.96069253   -1.2050624    20.686769 -7.7239855e-05 1.349938e-06 -0.00012705993 -0.00010600957      1000000 
  840000    0.9487169   -1.1935624     20.79354 6.2909491e-05 8.8420284e-05 0.0002650316 -0.00016472341      1000000 
  850000    1.0084469   -1.1532056    20.719448 -9.1265141e-05 -0.00014368103 -0.00016159428 3.1479896e-05      1000000 
  860000    1.0032396   -1.1872988    20.870618 -0.00017909009 -0.0002641486 -0.00023377977 -3.9341888e-05      1000000 
  870000    0.9385043   -1.1887614    20.831933 4.9508411e-05 -0.00022599309 0.00016212002 0.0002123983      1000000 
  880000    1.0212578   -1.1670773    20.807766 8.1460292e-05 0.00012336669 0.00029298647 -0.00017197228      1000000 
  890000    1.0522985   -1.1296281    20.795939 3.544944e-05 3.2807059e-05 -4.9227937e-05 0.0001227692      1000000 
  900000    0.9710086   -1.2113483    20.767544 0.00010199012 6.0078283e-05 0.00011882359 0.0001270685      1000000 
  910000    1.0539628   -1.1764283    20.688203 -0.00014982664 -5.9100381e-05 -2.664448e-05 -0.00036373507      1000000 
  920000    1.0782677   -1.2333727      20.7782 -4.5239023e-05 -7.1225489e-05 -0.00024578488 0.0001812933      1000000 
  930000    1.0270478   -1.1529098    20.660598 0.00026562328 0.00015176719 0.00059505732 5.0045323e-05      1000000 
  940000    1.0407187   -1.1734444    20.821079 0.00019397105 6.9218146e-05 0.00032372951 0.00018896548      1000000 
  950000     1.026773   -1.1671515    20.775033 4.2003314e-05 -2.5245234e-05 -0.00015448828 0.00030574346      1000000 
  960000    1.0123444   -1.1631489    20.767236 0.00011630754 0.00030309766 -4.0540452e-05 8.6365408e-05      1000000 
  970000    1.0698746   -1.1637572    20.812964 -0.00015009678 -1.1358788e-05 -2.79242e-05 -0.00041100734      1000000 
  980000   0.99013133   -1.1950507     20.77824 7.5537499e-05 0.00035384623 -0.00020738906 8.015532e-05      1000000 
  990000   0.92049492   -1.1674249    20.745563 0.00012387893 0.00020108033 0.00022255312 -5.1996663e-05      1000000 
 1000000   0.98560755   -1.1683853    20.755921 0.00017702142 7.5447167e-05 1.2101994e-05 0.0004435151      1000000 
 1001000    1.0579959   -1.2388052    20.751502 0.00013697917 0.00025565359 9.5019348e-05 6.0264561e-05      1000000 
Loop time of 58.5037 on 1 procs for 1000000 steps with 400 atoms

Performance: 14768296.701 tau/day, 17092.936 timesteps/s
99.7% CPU use with 1 MPI tasks x no OpenMP threads

MPI task timing breakdown:
Section |  min time  |  avg time  |  max time  |%varavg| %total
---------------------------------------------------------------
Pair    | 10.536     | 10.536     | 10.536     |   0.0 | 18.01
Bond    | 22.297     | 22.297     | 22.297     |   0.0 | 38.11
Neigh   | 4.792      | 4.792      | 4.792      |   0.0 |  8.19
Comm    | 0.31147    | 0.31147    | 0.31147    |   0.0 |  0.53
Output  | 0.39651    | 0.39651    | 0.39651    |   0.0 |  0.68
Modify  | 18.81      | 18.81      | 18.81      |   0.0 | 32.15
Other   |            | 1.361      |            |       |  2.33

Nlocal:    400 ave 400 max 400 min
Histogram: 1 0 0 0 0 0 0 0 0 0
Nghost:    0 ave 0 max 0 min
Histogram: 1 0 0 0 0 0 0 0 0 0
Neighs:    1989 ave 1989 max 1989 min
Histogram: 1 0 0 0 0 0 0 0 0 0

Total # of neighbors = 1989
Ave neighs/atom = 4.9725
Ave special neighs/atom = 1.99
Neighbor list builds = 23073
Dangerous builds = 0

include pair.unzipping
 pair_coeff            1           1   1.7000000000000000        1.0000000000000000        2.5000000000000000
 pair_coeff            2           2   1.7000000000000000        1.0000000000000000        2.5000000000000000
 pair_coeff            3           3   1.7000000000000000        1.0000000000000000        2.5000000000000000
 pair_coeff            4           4   1.7000000000000000        1.0000000000000000        2.5000000000000000
 pair_coeff            5           5   1.7000000000000000        1.0000000000000000        2.5000000000000000
 pair_coeff            6           6   1.7000000000000000        1.0000000000000000        2.5000000000000000
 pair_coeff            7           7   1.7000000000000000        1.0000000000000000        2.5000000000000000
 pair_coeff            8           8   1.7000000000000000        1.0000000000000000        2.5000000000000000
 pair_coeff            9           9   1.7000000000000000        1.0000000000000000        2.5000000000000000
 pair_coeff           10          10   1.7000000000000000        1.0000000000000000        2.5000000000000000
 pair_coeff           11          11   1.7000000000000000        1.0000000000000000        2.5000000000000000
 pair_coeff           12          12   1.7000000000000000        1.0000000000000000        2.5000000000000000
 pair_coeff           13          13   1.7000000000000000        1.0000000000000000        2.5000000000000000
 pair_coeff           14          14   1.7000000000000000        1.0000000000000000        2.5000000000000000
 pair_coeff           15          15   1.7000000000000000        1.0000000000000000        2.5000000000000000
 pair_coeff           16          16   1.7000000000000000        1.0000000000000000        2.5000000000000000
 pair_coeff           17          17   1.7000000000000000        1.0000000000000000        2.5000000000000000
 pair_coeff           18          18   1.7000000000000000        1.0000000000000000        2.5000000000000000
 pair_coeff           19          19   1.7000000000000000        1.0000000000000000        2.5000000000000000
 pair_coeff           20          20   1.7000000000000000        1.0000000000000000        2.5000000000000000
 pair_coeff           21          21   1.7000000000000000        1.0000000000000000        2.5000000000000000
 pair_coeff           22          22   1.7000000000000000        1.0000000000000000        2.5000000000000000
 pair_coeff           23          23   1.7000000000000000        1.0000000000000000        2.5000000000000000
 pair_coeff           24          24   1.7000000000000000        1.0000000000000000        2.5000000000000000
 pair_coeff           25          25   1.7000000000000000        1.0000000000000000        2.5000000000000000
 pair_coeff           26          26   1.7000000000000000        1.0000000000000000        2.5000000000000000
 pair_coeff           27          27   1.7000000000000000        1.0000000000000000        2.5000000000000000
 pair_coeff           28          28   1.7000000000000000        1.0000000000000000        2.5000000000000000
 pair_coeff           29          29   1.7000000000000000        1.0000000000000000        2.5000000000000000
 pair_coeff           30          30   1.7000000000000000        1.0000000000000000        2.5000000000000000
 pair_coeff           31          31   1.7000000000000000        1.0000000000000000        2.5000000000000000
 pair_coeff           32          32   1.7000000000000000        1.0000000000000000        2.5000000000000000
 pair_coeff           33          33   1.7000000000000000        1.0000000000000000        2.5000000000000000
 pair_coeff           34          34   1.7000000000000000        1.0000000000000000        2.5000000000000000
 pair_coeff           35          35   1.7000000000000000        1.0000000000000000        2.5000000000000000
 pair_coeff           36          36   1.7000000000000000        1.0000000000000000        2.5000000000000000
 pair_coeff           37          37   1.7000000000000000        1.0000000000000000        2.5000000000000000
 pair_coeff           38          38   1.7000000000000000        1.0000000000000000        2.5000000000000000
 pair_coeff           39          39   1.7000000000000000        1.0000000000000000        2.5000000000000000
 pair_coeff           40          40   1.7000000000000000        1.0000000000000000        2.5000000000000000
 pair_coeff           41          41   1.7000000000000000        1.0000000000000000        2.5000000000000000
 pair_coeff           42          42   1.7000000000000000        1.0000000000000000        2.5000000000000000
 pair_coeff           43          43   1.7000000000000000        1.0000000000000000        2.5000000000000000
 pair_coeff           44          44   1.7000000000000000        1.0000000000000000        2.5000000000000000
 pair_coeff           45          45   1.7000000000000000        1.0000000000000000        2.5000000000000000
 pair_coeff           46          46   1.7000000000000000        1.0000000000000000        2.5000000000000000
 pair_coeff           47          47   1.7000000000000000        1.0000000000000000        2.5000000000000000
 pair_coeff           48          48   1.7000000000000000        1.0000000000000000        2.5000000000000000
 pair_coeff           49          49   1.7000000000000000        1.0000000000000000        2.5000000000000000
 pair_coeff           50          50   1.7000000000000000        1.0000000000000000        2.5000000000000000
 pair_coeff           51          51   1.7000000000000000        1.0000000000000000        2.5000000000000000
 pair_coeff           52          52   1.7000000000000000        1.0000000000000000        2.5000000000000000
 pair_coeff           53          53   1.7000000000000000        1.0000000000000000        2.5000000000000000
 pair_coeff           54          54   1.7000000000000000        1.0000000000000000        2.5000000000000000
 pair_coeff           55          55   1.7000000000000000        1.0000000000000000        2.5000000000000000
 pair_coeff           56          56   1.7000000000000000        1.0000000000000000        2.5000000000000000
 pair_coeff           57          57   1.7000000000000000        1.0000000000000000        2.5000000000000000
 pair_coeff           58          58   1.7000000000000000        1.0000000000000000        2.5000000000000000
 pair_coeff           59          59   1.7000000000000000        1.0000000000000000        2.5000000000000000
 pair_coeff           60          60   1.7000000000000000        1.0000000000000000        2.5000000000000000
 pair_coeff           61          61   1.7000000000000000        1.0000000000000000        2.5000000000000000
 pair_coeff           62          62   1.7000000000000000        1.0000000000000000        2.5000000000000000
 pair_coeff           63          63   1.7000000000000000        1.0000000000000000        2.5000000000000000
 pair_coeff           64          64   1.7000000000000000        1.0000000000000000        2.5000000000000000
 pair_coeff           65          65   1.7000000000000000        1.0000000000000000        2.5000000000000000
 pair_coeff           66          66   1.7000000000000000        1.0000000000000000        2.5000000000000000
 pair_coeff           67          67   1.7000000000000000        1.0000000000000000        2.5000000000000000
 pair_coeff           68          68   1.7000000000000000        1.0000000000000000        2.5000000000000000
 pair_coeff           69          69   1.7000000000000000        1.0000000000000000        2.5000000000000000
 pair_coeff           70          70   1.7000000000000000        1.0000000000000000        2.5000000000000000
 pair_coeff           71          71   1.7000000000000000        1.0000000000000000        2.5000000000000000
 pair_coeff           72          72   1.7000000000000000        1.0000000000000000        2.5000000000000000
 pair_coeff           73          73   1.7000000000000000        1.0000000000000000        2.5000000000000000
 pair_coeff           74          74   1.7000000000000000        1.0000000000000000        2.5000000000000000
 pair_coeff           75          75   1.7000000000000000        1.0000000000000000        2.5000000000000000
 pair_coeff           76          76   1.7000000000000000        1.0000000000000000        2.5000000000000000
 pair_coeff           77          77   1.7000000000000000        1.0000000000000000        2.5000000000000000
 pair_coeff           78          78   1.7000000000000000        1.0000000000000000        2.5000000000000000
 pair_coeff           79          79   1.7000000000000000        1.0000000000000000        2.5000000000000000
 pair_coeff           80          80   1.7000000000000000        1.0000000000000000        2.5000000000000000
 pair_coeff           81          81   1.7000000000000000        1.0000000000000000        2.5000000000000000
 pair_coeff           82          82   1.7000000000000000        1.0000000000000000        2.5000000000000000
 pair_coeff           83          83   1.7000000000000000        1.0000000000000000        2.5000000000000000
 pair_coeff           84          84   1.7000000000000000        1.0000000000000000        2.5000000000000000
 pair_coeff           85          85   1.7000000000000000        1.0000000000000000        2.5000000000000000
 pair_coeff           86          86   1.7000000000000000        1.0000000000000000        2.5000000000000000
 pair_coeff           87          87   1.7000000000000000        1.0000000000000000        2.5000000000000000
 pair_coeff           88          88   1.7000000000000000        1.0000000000000000        2.5000000000000000
 pair_coeff           89          89   1.7000000000000000        1.0000000000000000        2.5000000000000000
 pair_coeff           90          90   1.7000000000000000        1.0000000000000000        2.5000000000000000
 pair_coeff           91          91   1.7000000000000000        1.0000000000000000        2.5000000000000000
 pair_coeff           92          92   1.7000000000000000        1.0000000000000000        2.5000000000000000
 pair_coeff           93          93   1.7000000000000000        1.0000000000000000        2.5000000000000000
 pair_coeff           94          94   1.7000000000000000        1.0000000000000000        2.5000000000000000
 pair_coeff           95          95   1.7000000000000000        1.0000000000000000        2.5000000000000000
 pair_coeff           96          96   1.7000000000000000        1.0000000000000000        2.5000000000000000
 pair_coeff           97          97   1.7000000000000000        1.0000000000000000        2.5000000000000000
 pair_coeff           98          98   1.7000000000000000        1.0000000000000000        2.5000000000000000
 pair_coeff           99          99   1.7000000000000000        1.0000000000000000        2.5000000000000000
 pair_coeff          100         100   1.7000000000000000        1.0000000000000000        2.5000000000000000
 pair_coeff          101         101   1.7000000000000000        1.0000000000000000        2.5000000000000000
 pair_coeff          102         102   1.7000000000000000        1.0000000000000000        2.5000000000000000
 pair_coeff          103         103   1.7000000000000000        1.0000000000000000        2.5000000000000000
 pair_coeff          104         104   1.7000000000000000        1.0000000000000000        2.5000000000000000
 pair_coeff          105         105   1.7000000000000000        1.0000000000000000        2.5000000000000000
 pair_coeff          106         106   1.7000000000000000        1.0000000000000000        2.5000000000000000
 pair_coeff          107         107   1.7000000000000000        1.0000000000000000        2.5000000000000000
 pair_coeff          108         108   1.7000000000000000        1.0000000000000000        2.5000000000000000
 pair_coeff          109         109   1.7000000000000000        1.0000000000000000        2.5000000000000000
 pair_coeff          110         110   1.7000000000000000        1.0000000000000000        2.5000000000000000
 pair_coeff          111         111   1.7000000000000000        1.0000000000000000        2.5000000000000000
 pair_coeff          112         112   1.7000000000000000        1.0000000000000000        2.5000000000000000
 pair_coeff          113         113   1.7000000000000000        1.0000000000000000        2.5000000000000000
 pair_coeff          114         114   1.7000000000000000        1.0000000000000000        2.5000000000000000
 pair_coeff          115         115   1.7000000000000000        1.0000000000000000        2.5000000000000000
 pair_coeff          116         116   1.7000000000000000        1.0000000000000000        2.5000000000000000
 pair_coeff          117         117   1.7000000000000000        1.0000000000000000        2.5000000000000000
 pair_coeff          118         118   1.7000000000000000        1.0000000000000000        2.5000000000000000
 pair_coeff          119         119   1.7000000000000000        1.0000000000000000        2.5000000000000000
 pair_coeff          120         120   1.7000000000000000        1.0000000000000000        2.5000000000000000
 pair_coeff          121         121   1.7000000000000000        1.0000000000000000        2.5000000000000000
 pair_coeff          122         122   1.7000000000000000        1.0000000000000000        2.5000000000000000
 pair_coeff          123         123   1.7000000000000000        1.0000000000000000        2.5000000000000000
 pair_coeff          124         124   1.7000000000000000        1.0000000000000000        2.5000000000000000
 pair_coeff          125         125   1.7000000000000000        1.0000000000000000        2.5000000000000000
 pair_coeff          126         126   1.7000000000000000        1.0000000000000000        2.5000000000000000
 pair_coeff          127         127   1.7000000000000000        1.0000000000000000        2.5000000000000000
 pair_coeff          128         128   1.7000000000000000        1.0000000000000000        2.5000000000000000
 pair_coeff          129         129   1.7000000000000000        1.0000000000000000        2.5000000000000000
 pair_coeff          130         130   1.7000000000000000        1.0000000000000000        2.5000000000000000
 pair_coeff          131         131   1.7000000000000000        1.0000000000000000        2.5000000000000000
 pair_coeff          132         132   1.7000000000000000        1.0000000000000000        2.5000000000000000
 pair_coeff          133         133   1.7000000000000000        1.0000000000000000        2.5000000000000000
 pair_coeff          134         134   1.7000000000000000        1.0000000000000000        2.5000000000000000
 pair_coeff          135         135   1.7000000000000000        1.0000000000000000        2.5000000000000000
 pair_coeff          136         136   1.7000000000000000        1.0000000000000000        2.5000000000000000
 pair_coeff          137         137   1.7000000000000000        1.0000000000000000        2.5000000000000000
 pair_coeff          138         138   1.7000000000000000        1.0000000000000000        2.5000000000000000
 pair_coeff          139         139   1.7000000000000000        1.0000000000000000        2.5000000000000000
 pair_coeff          140         140   1.7000000000000000        1.0000000000000000        2.5000000000000000
 pair_coeff          141         141   1.7000000000000000        1.0000000000000000        2.5000000000000000
 pair_coeff          142         142   1.7000000000000000        1.0000000000000000        2.5000000000000000
 pair_coeff          143         143   1.7000000000000000        1.0000000000000000        2.5000000000000000
 pair_coeff          144         144   1.7000000000000000        1.0000000000000000        2.5000000000000000
 pair_coeff          145         145   1.7000000000000000        1.0000000000000000        2.5000000000000000
 pair_coeff          146         146   1.7000000000000000        1.0000000000000000        2.5000000000000000
 pair_coeff          147         147   1.7000000000000000        1.0000000000000000        2.5000000000000000
 pair_coeff          148         148   1.7000000000000000        1.0000000000000000        2.5000000000000000
 pair_coeff          149         149   1.7000000000000000        1.0000000000000000        2.5000000000000000
 pair_coeff          150         150   1.7000000000000000        1.0000000000000000        2.5000000000000000
 pair_coeff          151         151   1.7000000000000000        1.0000000000000000        2.5000000000000000
 pair_coeff          152         152   1.7000000000000000        1.0000000000000000        2.5000000000000000
 pair_coeff          153         153   1.7000000000000000        1.0000000000000000        2.5000000000000000
 pair_coeff          154         154   1.7000000000000000        1.0000000000000000        2.5000000000000000
 pair_coeff          155         155   1.7000000000000000        1.0000000000000000        2.5000000000000000
 pair_coeff          156         156   1.7000000000000000        1.0000000000000000        2.5000000000000000
 pair_coeff          157         157   1.7000000000000000        1.0000000000000000        2.5000000000000000
 pair_coeff          158         158   1.7000000000000000        1.0000000000000000        2.5000000000000000
 pair_coeff          159         159   1.7000000000000000        1.0000000000000000        2.5000000000000000
 pair_coeff          160         160   1.7000000000000000        1.0000000000000000        2.5000000000000000
 pair_coeff          161         161   1.7000000000000000        1.0000000000000000        2.5000000000000000
 pair_coeff          162         162   1.7000000000000000        1.0000000000000000        2.5000000000000000
 pair_coeff          163         163   1.7000000000000000        1.0000000000000000        2.5000000000000000
 pair_coeff          164         164   1.7000000000000000        1.0000000000000000        2.5000000000000000
 pair_coeff          165         165   1.7000000000000000        1.0000000000000000        2.5000000000000000
 pair_coeff          166         166   1.7000000000000000        1.0000000000000000        2.5000000000000000
 pair_coeff          167         167   1.7000000000000000        1.0000000000000000        2.5000000000000000
 pair_coeff          168         168   1.7000000000000000        1.0000000000000000        2.5000000000000000
 pair_coeff          169         169   1.7000000000000000        1.0000000000000000        2.5000000000000000
 pair_coeff          170         170   1.7000000000000000        1.0000000000000000        2.5000000000000000
 pair_coeff          171         171   1.7000000000000000        1.0000000000000000        2.5000000000000000
 pair_coeff          172         172   1.7000000000000000        1.0000000000000000        2.5000000000000000
 pair_coeff          173         173   1.7000000000000000        1.0000000000000000        2.5000000000000000
 pair_coeff          174         174   1.7000000000000000        1.0000000000000000        2.5000000000000000
 pair_coeff          175         175   1.7000000000000000        1.0000000000000000        2.5000000000000000
 pair_coeff          176         176   1.7000000000000000        1.0000000000000000        2.5000000000000000
 pair_coeff          177         177   1.7000000000000000        1.0000000000000000        2.5000000000000000
 pair_coeff          178         178   1.7000000000000000        1.0000000000000000        2.5000000000000000
 pair_coeff          179         179   1.7000000000000000        1.0000000000000000        2.5000000000000000
 pair_coeff          180         180   1.7000000000000000        1.0000000000000000        2.5000000000000000
 pair_coeff          181         181   1.7000000000000000        1.0000000000000000        2.5000000000000000
 pair_coeff          182         182   1.7000000000000000        1.0000000000000000        2.5000000000000000
 pair_coeff          183         183   1.7000000000000000        1.0000000000000000        2.5000000000000000
 pair_coeff          184         184   1.7000000000000000        1.0000000000000000        2.5000000000000000
 pair_coeff          185         185   1.7000000000000000        1.0000000000000000        2.5000000000000000
 pair_coeff          186         186   1.7000000000000000        1.0000000000000000        2.5000000000000000
 pair_coeff          187         187   1.7000000000000000        1.0000000000000000        2.5000000000000000
 pair_coeff          188         188   1.7000000000000000        1.0000000000000000        2.5000000000000000
 pair_coeff          189         189   1.7000000000000000        1.0000000000000000        2.5000000000000000
 pair_coeff          190         190   1.7000000000000000        1.0000000000000000        2.5000000000000000
 pair_coeff          191         191   1.7000000000000000        1.0000000000000000        2.5000000000000000
 pair_coeff          192         192   1.7000000000000000        1.0000000000000000        2.5000000000000000
 pair_coeff          193         193   1.7000000000000000        1.0000000000000000        2.5000000000000000
 pair_coeff          194         194   1.7000000000000000        1.0000000000000000        2.5000000000000000
 pair_coeff          195         195   1.7000000000000000        1.0000000000000000        2.5000000000000000
 pair_coeff          196         196   1.7000000000000000        1.0000000000000000        2.5000000000000000
 pair_coeff          197         197   1.7000000000000000        1.0000000000000000        2.5000000000000000
 pair_coeff          198         198   1.7000000000000000        1.0000000000000000        2.5000000000000000
 pair_coeff          199         199   1.7000000000000000        1.0000000000000000        2.5000000000000000
 pair_coeff          200         200   1.7000000000000000        1.0000000000000000        2.5000000000000000

run 3000000
Memory usage per processor = 6.69894 Mbytes
Step Temp E_pair E_mol Press Pxx Pyy Pzz Volume 
 1001000    1.0579959  -0.69603605    20.751502 0.00019393538 0.00033020301 0.00015334299 9.8260127e-05      1000000 
 1010000   0.92713016  -0.49584504    20.896296 7.1984504e-05 -0.00012252666 0.00022694016 0.00011154001      1000000 
 1020000    1.0141406  -0.48403213    20.769673 2.8109108e-05 -0.00016321111 0.00043507643 -0.000187538      1000000 
 1030000   0.96235228  -0.45665883    20.895529 -1.0103345e-05 -0.00023150828 -0.00010127769 0.00030247593      1000000 
 1040000    1.0158315  -0.42273136    20.902303 0.00012082974 -1.272678e-05 6.9495534e-05 0.00030572047      1000000 
 1050000    1.0246574  -0.44649353    20.912826 3.8486081e-05 0.00024108914 -0.00029257973 0.00016694883      1000000 
 1060000   0.99539745   -0.4774551    20.945546 -4.255946e-05 0.00014692645 -0.00018615946 -8.8445375e-05      1000000 
 1070000   0.96124408   -0.3681576    20.831579 1.9426719e-05 -0.00017642584 9.5744285e-05 0.00013896171      1000000 
 1080000   0.95362191  -0.51164903    20.856715 0.00027535131 -1.5929744e-05 0.0005478852 0.00029409847      1000000 
 1090000    1.0222514  -0.45790027    20.907411 0.00044881749 4.5725576e-05 0.00055477294 0.00074595396      1000000 
 1100000    1.0186539    -0.419902    20.918252 -7.6705714e-05 -0.00049452526 4.4171721e-05 0.0002202364      1000000 
 1110000    1.0031071   -0.4392453    20.774254 9.1294052e-05 6.8080258e-05 3.5828421e-05 0.00016997348      1000000 
 1120000   0.99312695  -0.45470186     20.87107 -5.3385568e-05 -2.8935226e-05 2.7495406e-05 -0.00015871688      1000000 
 1130000    1.0089121  -0.49177971    20.949446 5.7428472e-05 6.9163329e-07 -0.00016834691 0.00033994069      1000000 
 1140000    1.0940076    -0.449597    20.787884 0.00019106828 0.00017299818 0.00019250809 0.00020769856      1000000 
 1150000    0.9810535  -0.47587427    20.860187 0.00013424161 4.3117433e-05 2.5494675e-05 0.00033411272      1000000 
 1160000    1.0044481  -0.57400431     20.83054 5.6454132e-05 2.1688844e-05 -9.3236669e-05 0.00024091022      1000000 
 1170000   0.95088487  -0.50253551    20.919695 0.00025104678 0.0003416831 0.00015700754 0.00025444971      1000000 
 1180000    0.9555173  -0.49710525    20.827751 -6.1130338e-05 0.00013839815 -0.00019485529 -0.00012693388      1000000 
 1190000    1.0044802  -0.53027354    20.870286 -1.2127578e-05 -0.00012994314 -0.00014571399 0.00023927439      1000000 
 1200000    1.0241556  -0.51259826    20.799351 0.00012109979 -1.1412655e-05 0.00019764483 0.00017706719      1000000 
 1210000    1.0218792  -0.46221493    20.786226 -0.0001819612 -5.4947892e-05 -4.8305114e-05 -0.00044263059      1000000 
 1220000   0.90703851  -0.41218176    20.913087 -1.1353661e-05 -5.0453357e-05 0.00017445412 -0.00015806175      1000000 
 1230000    0.9953101  -0.51647726    20.764615 -2.9580923e-05 -0.00012188321 -2.41683e-05 5.7308745e-05      1000000 
 1240000   0.98461096   -0.4724115    20.774735 1.4252448e-05 5.2839688e-06 7.7469277e-05 -3.9995903e-05      1000000 
 1250000   0.98091087  -0.50560641    20.809452 1.0260268e-05 -7.4501991e-05 0.00012187525 -1.6592457e-05      1000000 
 1260000   0.97373754  -0.46986474    20.791505 -0.000107362 -9.9498086e-05 -5.4549411e-05 -0.0001680385      1000000 
 1270000    1.0415609  -0.47332284    20.834061 -2.0056247e-05 -0.00025851166 3.7870365e-05 0.00016047256      1000000 
 1280000    1.0467769   -0.4457133     20.84819 8.7491706e-05 -7.0522162e-05 0.00031445362 1.8543662e-05      1000000 
 1290000    1.0076552  -0.51446586    20.757572 0.00031441569 0.00052629646 0.00030755806 0.00010939254      1000000 
 1300000   0.95665151  -0.49934903    20.682445 0.00010768902 0.00014800881 0.00013379133 4.1266916e-05      1000000 
 1310000   0.98376042  -0.45882141    20.825608 -0.00033899618 -8.661479e-05 -0.00040323321 -0.00052714053      1000000 
 1320000   0.97161474   -0.5068891    20.817666 -0.00036287237 -0.00030182649 -0.00027041768 -0.00051637295      1000000 
 1330000   0.96121758  -0.55088073    20.744957 3.3402572e-05 -0.00016463188 0.00029876799 -3.3928394e-05      1000000 
 1340000    1.0208865  -0.54794529    20.748591 0.00036093786 0.0005182464 0.00041213289 0.0001524343      1000000 
 1350000   0.99298745  -0.49755442    20.887689 0.00013072597 -0.00013857183 0.00027316881 0.00025758093      1000000 
 1360000    1.0004775  -0.50364903    20.801205 -0.00027201138 -0.0001847159 -0.00033992236 -0.00029139588      1000000 
 1370000    1.0375607  -0.49538784    20.881406 -0.00012591093 -0.00024965931 -0.00019082161 6.274813e-05      1000000 
 1380000   0.98786766  -0.53997129    20.784555 0.00025928304 -0.00012429241 0.00047833326 0.00042380827      1000000 
 1390000    1.0605916   -0.5152713    20.684696 -9.4946931e-05 6.7906643e-05 -0.00027048085 -8.2266585e-05      1000000 
 1400000    1.0012494  -0.52655577    20.897073 -0.00026461177 -0.00031134827 -0.00032581026 -0.00015667677      1000000 
 1410000    1.0297713  -0.43940835    20.875109 -0.00013455192 -0.00011499349 -6.7994536e-05 -0.00022066774      1000000 
 1420000     1.021918  -0.51031772    20.883657 -6.8460136e-05 -0.00023810557 -4.678598e-05 7.9511138e-05      1000000 
 1430000    1.0266456  -0.51745554     20.74304 5.8792925e-05 -0.00027236095 0.00022942219 0.00021931753      1000000 
 1440000    0.9975126  -0.39656841    20.847908  -0.00012022 8.8012979e-05 -0.00048989353 4.1220542e-05      1000000 
 1450000   0.91279613   -0.4422468    20.892824 -3.8528641e-05 -3.8167819e-05 -2.1974621e-05 -5.5443484e-05      1000000 
 1460000   0.95507665  -0.50105505    20.842035 6.1270656e-05 1.2954478e-05 -7.685429e-05 0.00024771178      1000000 
 1470000   0.91953495  -0.46394908    20.713639 4.3150206e-05 -7.260753e-05 -2.6903031e-05 0.00022896118      1000000 
 1480000    1.0263122  -0.50075155    20.762663 -0.00022412532 -0.00019408637 -0.00045474297 -2.354662e-05      1000000 
 1490000   0.99161857  -0.52883484    20.794597 -0.00017978784 -2.1896448e-05 -0.00045486459 -6.26025e-05      1000000 
 1500000    0.9847397  -0.45494643     20.77708 -0.00049294199 -0.00034902314 -0.00072577186 -0.00040403097      1000000 
 1510000    1.0193971  -0.51174173     20.91238 -0.0002679023 6.3437975e-05 -0.00070639144 -0.00016075343      1000000 
 1520000    1.0768689  -0.44267499    20.813319 -0.0001775151 -0.00016229297 -0.00016085217 -0.00020940014      1000000 
 1530000    1.0401153  -0.45014014    20.862012 -7.1248347e-05 0.00018426083 -5.9128128e-05 -0.00033887774      1000000 
 1540000    1.0232055  -0.43483133    20.767162 8.261462e-05 -2.6983858e-06 0.00038146561 -0.00013092336      1000000 
 1550000    1.0246607  -0.45304276    20.843546 0.00022750679 0.00027282332 0.0002913461 0.00011835095      1000000 
 1560000   0.98117018  -0.44794269    20.777084 0.00023586897 -0.0001167108 0.00038821109 0.00043610661      1000000 
 1570000   0.97846024  -0.44655575    20.881737 0.00026029152 0.00010228439 0.0003863866 0.00029220357      1000000 
 1580000    0.9701921  -0.45012933    20.841084 -0.00043492879 -0.00047641239 -0.00044859061 -0.00037978338      1000000 
 1590000   0.97341158  -0.39086484    20.820246 -0.00011729888 -0.00016510612 9.3516959e-05 -0.00028030748      1000000 
 1600000    1.0193992  -0.53396579    20.767667 -0.00026194624 -8.6362503e-05 -0.00057145915 -0.00012801705      1000000 
 1610000   0.99929325  -0.44897379    20.887595 -0.00012889264 -0.00018007232 4.9168746e-05 -0.00025577436      1000000 
 1620000   0.98007667  -0.46891223    20.828733 -6.709216e-06 0.0001479121 -8.5803226e-05 -8.2236521e-05      1000000 
 1630000    1.0639954  -0.44430989    20.830385 0.00019535817 0.00040579333 -9.9955119e-05 0.0002802363      1000000 
 1640000    1.0339562  -0.47180355    20.837755 0.00027274237 0.00011741378 0.00036093527 0.00033987806      1000000 
 1650000    1.0287007  -0.43178245    20.829539 0.00015323984 0.0002399259 0.00011470753 0.00010508609      1000000 
 1660000    1.0455233  -0.43495255    20.860359 -5.650664e-05 4.2814444e-06 -4.4389977e-05 -0.00012941139      1000000 
 1670000    0.9766168  -0.40549579    20.794097 0.00011127548 -6.0795024e-05 0.00021488112 0.00017974036      1000000 
 1680000   0.94813228  -0.41217123     20.89956 0.00019140789 -4.6096667e-05 0.00041271952 0.00020760083      1000000 
 1690000    1.1108097  -0.42412884    20.922812 0.00019231404 0.0003710515 -7.269365e-05 0.00027858426      1000000 
 1700000    1.0257027  -0.40738848    20.908845 -0.00035015446 -0.00025957117 -0.00058418727 -0.00020670493      1000000 
 1710000   0.98817563  -0.50873787    20.887325 1.6651301e-05 -0.00023366651 0.00027506339 8.5570212e-06      1000000 
 1720000   0.98304375  -0.47449281    20.884201 9.0340048e-05 0.00023433714 3.9514209e-05 -2.8312058e-06      1000000 
 1730000    1.0481182  -0.45179117    20.723956 -0.00040555935 -0.00066065488 -0.00019475399 -0.00036126917      1000000 
 1740000    0.9729874  -0.49122687    20.833495 -0.00033990522 -0.00027894757 -0.00022548608 -0.00051528201      1000000 
 1750000   0.98793602  -0.47801549    20.843205 2.0131335e-05 -9.7381076e-05 0.00014822283 9.5522478e-06      1000000 
 1760000   0.96829303   -0.4539637    20.784658 -0.00023866607 -0.00034774346 -0.00033113412 -3.7120627e-05      1000000 
 1770000   0.96310595  -0.50910484    20.782274 6.6155755e-05 -0.00010099451 0.00020978929 8.9672491e-05      1000000 
 1780000    1.0217086  -0.51474102     20.89646 -0.00039244955 -0.00045165561 -0.0002404664 -0.00048522662      1000000 
 1790000   0.98702612  -0.56695536     20.74482 -8.8686949e-05 -7.1508561e-05 -0.00013173347 -6.2818818e-05      1000000 
 1800000    1.0525373  -0.51406004    20.904227 -0.00013175073 -0.00019774436 -0.00021766644 2.0158603e-05      1000000 
 1810000    1.0379154  -0.46030872    20.748328 0.00031192464 0.00040326595 0.00043631553 9.6192442e-05      1000000 
 1820000   0.97575959  -0.47805461    20.840169 -8.2745134e-05 -0.0001552602 2.1723049e-05 -0.00011469825      1000000 
 1830000   0.97521945  -0.45903457    20.759231 0.00011417858 0.00012910397 0.00029157659 -7.8144825e-05      1000000 
 1840000   0.98194119  -0.46612322    20.832066 -0.00011398884 -3.8086832e-05 -0.00023822828 -6.5651405e-05      1000000 
 1850000   0.92439966  -0.48399424    20.855527 8.4494428e-05 -0.00015906779 0.00023740679 0.00017514428      1000000 
 1860000   0.99425654  -0.45429456    20.883009 -0.00019642453 0.00027253619 -0.00052115841 -0.00034065137      1000000 
 1870000    1.0560952  -0.54709608    20.731921 -3.3882461e-05 -4.5198528e-05 -0.00020143487 0.00014498601      1000000 
 1880000   0.99904029  -0.52587828    20.837071 5.8189282e-06 -0.00023704052 -0.00016583266 0.00042032997      1000000 
 1890000   0.96732695  -0.46168522     20.78845 0.00018642288 0.00025696476 0.00038342773 -8.1123852e-05      1000000 
 1900000   0.93982567  -0.45072363    20.800656 -0.0002419362 -0.0003385632 -0.00011119941 -0.00027604599      1000000 
 1910000   0.98529304  -0.43260337    20.898591 -0.00017783225 5.1588018e-05 -0.00031900195 -0.00026608283      1000000 
 1920000     1.014486  -0.47731779    20.860664 0.00010795073 4.3070488e-05 0.00022041356 6.0368151e-05      1000000 
 1930000    1.0367754  -0.45031731     20.80334 0.00010213046 -0.00013924514 0.00016894293 0.00027669358      1000000 
 1940000   0.95623596  -0.51074303    20.797763 -0.00034682814 -0.00040746057 -0.00035279652 -0.00028022733      1000000 
 1950000   0.99698378  -0.48182257    20.839163 -0.00012216519 -0.00027143204 -0.00025821752  0.000163154      1000000 
 1960000    1.0365326  -0.53185853    20.734267 -2.3044414e-05 0.00011856666 -0.00010762286 -8.0077042e-05      1000000 
 1970000    1.0678067   -0.4960034    20.808628 0.00031404033 0.00022956562 0.00021738543 0.00049516995      1000000 
 1980000    1.0260768  -0.49643922    20.851494 8.7761579e-05 -2.9081777e-05 6.699937e-05 0.00022536714      1000000 
 1990000    1.0114954  -0.53060909    20.773985 4.907347e-05 -0.00011197541 8.3913086e-05 0.00017528274      1000000 
 2000000   0.92534158   -0.4879231    20.835371 0.00011422044 0.00042508065 -0.00016547069 8.3051356e-05      1000000 
 2010000   0.99622737  -0.45844859    20.784326 0.00017356891 0.00014728731 0.00017752715 0.00019589226      1000000 
 2020000    1.0325421  -0.46656074    20.978341 -0.00033661269 -0.00035127358 -0.00048242115 -0.00017614335      1000000 
 2030000    1.0381804  -0.51574054    20.885048 7.9678551e-05 0.00023384008 -0.00028737539 0.00029257096      1000000 
 2040000   0.97160346  -0.45087124    20.856512 -0.00017207463 -0.00017348844 -0.00043682175 9.4086291e-05      1000000 
 2050000    1.0262877  -0.48694922    20.823837 0.00019502921 0.00017023581 6.6013516e-05 0.00034883832      1000000 
 2060000   0.99063889  -0.47824495    20.811536 -6.2405138e-05 -0.00028910426 0.00026767478 -0.00016578593      1000000 
 2070000    1.0010899  -0.42931586    20.723761 -0.00017820881 -0.0001839924 -0.00020239928 -0.00014823476      1000000 
 2080000    1.0379819  -0.48537719    20.900376 0.00010424011 3.2737903e-05 6.2391717e-05 0.00021759071      1000000 
 2090000    1.0133676  -0.47805606    20.877437 -0.0003426004 -0.00050015645 -0.00040629478 -0.00012134998      1000000 
 2100000   0.98029454  -0.54092222    20.802876 -0.00031415482 -0.00054442259 -0.00023442102 -0.00016362084      1000000 
 2110000    1.0333104  -0.39928631    20.791492 -8.3369469e-05 -0.00012415316 -0.00026119806 0.00013524281      1000000 
 2120000    1.0041439  -0.45022446    20.824229 -0.00018176367 -0.000389275 -9.3596623e-05 -6.2419392e-05      1000000 
 2130000   0.99784354  -0.42432054     20.90144 8.810458e-05 0.00017956929 2.494447e-05 5.9799979e-05      1000000 
 2140000    1.0009909  -0.43739631    20.913254 -8.1726493e-05 -5.6807337e-06 -0.00010493329 -0.00013456546      1000000 
 2150000   0.93901761  -0.35237304    20.925428 -8.5995203e-05 -0.00038318035 -0.00012095818 0.00024615292      1000000 
 2160000   0.99380895  -0.43220834    20.774578 0.00016891332 0.00012603192 0.0003862334 -5.5253793e-06      1000000 
 2170000   0.98300636  -0.44452824    20.834332 -0.00011316174 -0.00032370768 0.00011697552 -0.00013275306      1000000 
 2180000    1.0937546  -0.38473752    20.850903 -0.00011999767 0.00049474381 -0.00041998255 -0.00043475427      1000000 
 2190000    1.0629901  -0.46198384    20.841637 0.0001942252 -2.1269029e-05 0.00017495002 0.0004289946      1000000 
 2200000   0.99608924  -0.42778785    20.821108 5.5108015e-06 1.1293282e-05 7.571011e-05 -7.0470987e-05      1000000 
 2210000   0.98859249  -0.43666843     20.86821 5.2391008e-06 -0.00020389666 1.367434e-05 0.00020593962      1000000 
 2220000    1.0335224  -0.44398951    20.841875 0.00023959408 8.1556581e-05 5.0634546e-05 0.00058659111      1000000 
 2230000     1.004771  -0.35438348    20.931683 0.00019915767 -0.0002149348 0.00013554611 0.00067686169      1000000 
 2240000    1.0500773  -0.43979807     20.83626 0.00012533599 0.00017986264 1.6539295e-05 0.00017960604      1000000 
 2250000    1.0348637  -0.41970989    20.923534 0.00023558818 0.00021880024   0.00018012 0.0003078443      1000000 
 2260000   0.98115475  -0.48947755    20.878618 -0.00028063858 -0.00039401171 -5.2769441e-05 -0.0003951346      1000000 
 2270000   0.97903641  -0.40549681     20.80626 0.00017889752 -4.0419526e-05  0.000458106 0.00011900608      1000000 
 2280000    1.0132238  -0.42106791    20.888764 -0.00017448796 -0.00035014425 -5.6876859e-05 -0.00011644276      1000000 
 2290000   0.92896005   -0.5013291     20.77821 -0.00013193961 -7.8764998e-06 -0.0003222025 -6.5739829e-05      1000000 
 2300000   0.99797287  -0.40757336    20.841999 9.6197345e-06 -0.00017136936 0.00013330526 6.6923306e-05      1000000 
 2310000    1.0922362  -0.39086761    20.863819 0.00018334434 0.00024853378 0.00054901351 -0.00024751428      1000000 
 2320000   0.99478835  -0.40418798    20.789653 -0.0001819356 -0.0002354587 -9.8927328e-05 -0.00021142078      1000000 
 2330000   0.98996068  -0.49913632    20.874935 -0.00025845378 -0.00038197714 -0.00038829369 -5.0905017e-06      1000000 
 2340000   0.98467762  -0.47807811    20.767394 -2.8157442e-05 -0.00013710675 2.2825514e-05 2.9808909e-05      1000000 
 2350000    1.0025014  -0.45158798    20.837346 -0.00037804689 -0.00050530688 -0.00027441868 -0.00035441512      1000000 
 2360000   0.97248044    -0.539838    20.792178 -0.00014061812  0.000214303 -0.00025679843 -0.00037935895      1000000 
 2370000    1.0470518  -0.47499299      20.9114 -1.0314133e-05 5.6635904e-05 -0.00017736546 8.978716e-05      1000000 
 2380000   0.98814862  -0.50044345    20.851454 0.00043831535 0.00071115467 0.00044392971 0.00015986168      1000000 
 2390000    1.0125301  -0.48512426    20.850892 0.00031407792 0.00026861866 0.00042310656 0.00025050853      1000000 
 2400000   0.97897658  -0.48128381    20.880856 0.00016248484 0.00041630953 -0.00015616908 0.00022731407      1000000 
 2410000   0.94071366  -0.43052444     20.87589 0.00011879638 -3.6277668e-05 0.0002449754 0.00014769141      1000000 
 2420000   0.98383876  -0.53107274    20.762657 0.0001986196 0.00058970656 -0.00031084502 0.00031699728      1000000 
 2430000    1.0238718  -0.45824385    20.859534 -0.00011392187 -0.00023520988 0.00014217476 -0.00024873049      1000000 
 2440000    1.0710348  -0.49165761    20.765902 0.00041470611 0.00027993831 0.00045748646 0.00050669355      1000000 
 2450000   0.98959559  -0.49739652    20.859481 -0.00043205859 -0.00048144611 -0.00072768932 -8.7040351e-05      1000000 
 2460000   0.98389989  -0.51611024    20.842899 -0.00019394652 -0.0002671418 -0.00011595985 -0.0001987379      1000000 
 2470000   0.88259806   -0.5102237    20.808836 0.00010045546 0.00023167184 -3.9008568e-05 0.00010870311      1000000 
 2480000    1.0150353  -0.54684261    20.814912 0.00011998454 -5.4892854e-05 0.00031875826 9.6088217e-05      1000000 
 2490000    1.0341867  -0.50749582    20.745714 -4.0951251e-05 -0.0003170266 0.00017439336 1.9779487e-05      1000000 
 2500000    1.0288427   -0.4725383    20.967922 0.00045818581 0.00038811723 0.00093318225 5.3257967e-05      1000000 
 2510000    1.0573012  -0.56731448    20.806825 0.00013964672 -4.7180517e-05 0.0002587075 0.00020741318      1000000 
 2520000   0.95819829  -0.48917975    20.860532 -0.00027795278 -0.00032863465 -0.00037376837 -0.00013145531      1000000 
 2530000    1.0099276   -0.4602574    20.862952 7.9299232e-05 -0.00017678311 3.0147486e-05 0.00038453332      1000000 
 2540000   0.99585622  -0.51369963    20.842466 0.00012418666 7.8165695e-05 -0.00010850209 0.00040289637      1000000 
 2550000   0.99557383  -0.51720788    20.806508 -0.00017524807 -0.00038317264 -0.00015791375 1.5342182e-05      1000000 
 2560000    1.0897145  -0.50221152    20.807164 3.4633544e-05 -0.00016295784 5.4335962e-05 0.00021252251      1000000 
 2570000    1.0198291  -0.46853663    20.834442 -0.00022511273 -0.00018509945 -0.0003032751 -0.00018696364      1000000 
 2580000   0.98953356  -0.52821319    20.796416 0.00013130772 -8.8839126e-05 0.00016575888 0.00031700341      1000000 
 2590000    1.0371535  -0.45291871    20.889831 0.00020125174 0.00026578453 6.375419e-05 0.00027421649      1000000 
 2600000    1.0132664  -0.51237536    20.858768 0.00018478773 -7.655498e-06 0.00033385686 0.00022816185      1000000 
 2610000    1.0145158  -0.53612409    20.893588 -0.00026032725 -0.0004119227 -0.00027875921 -9.0299845e-05      1000000 
 2620000     1.012576  -0.48025602    20.874136 -0.00024999568 -0.00018727123 -5.5839422e-05 -0.0005068764      1000000 
 2630000    1.0142706  -0.49064416    20.786981 -0.00041766386 -0.00021582066 -0.00091294773 -0.00012422321      1000000 
 2640000    1.0425427  -0.46968584    20.820141 -9.7051747e-05 -3.556291e-05 -0.00022506765 -3.0524677e-05      1000000 
 2650000   0.98332526  -0.45846188    20.783571 0.00014340099 -0.00018245998 0.00029601493 0.00031664802      1000000 
 2660000   0.94526841  -0.44580386    20.798728 -4.4734788e-05 9.1932342e-05 0.00018337697 -0.00040951367      1000000 
 2670000   0.97895351  -0.42912672    20.784608 0.00028706724 0.00017250863 0.0003798797 0.0003088134      1000000 
 2680000    1.0265194  -0.56428758    20.834551 0.00019487174 0.00055872729 0.00036645557 -0.00034056764      1000000 
 2690000   0.98700197  -0.52528619    20.822522 3.7503764e-05 0.00031916397 -0.00022111384 1.446117e-05      1000000 
 2700000    1.0213487    -0.501589    20.856401 -0.00019833794 0.00017560191 -0.00035225157 -0.00041836416      1000000 
 2710000    1.0077093  -0.53690175    20.714316 3.4011155e-05 -9.4618319e-05 1.7092345e-05 0.00017955944      1000000 
 2720000    1.0207507  -0.41098779    20.850733 -0.00020818222 -0.00034283744 -0.00030345755 2.1748321e-05      1000000 
 2730000   0.94183166  -0.49884393    20.797918 0.00040057363 0.00032358381 0.0006344952 0.00024364188      1000000 
 2740000    1.0324825  -0.56673888    20.828125 -0.00011066707 -0.00017814622 -8.369433e-05 -7.0160665e-05      1000000 
 2750000   0.99813151   -0.5362625    20.797731 -0.00030727265 -0.00049346144 -2.7909601e-05 -0.0004004469      1000000 
 2760000   0.95572658  -0.44441281    20.829529 -0.00016149753 -0.00020609016 3.8622425e-05 -0.00031702485      1000000 
 2770000   0.98714946  -0.47890891    20.798866 -0.00037768777 -0.00061910386 -0.00037696851 -0.00013699093      1000000 
 2780000    1.0013279  -0.45819083    20.761582 -0.00015553146 0.00024906159 -0.00039174282 -0.00032391313      1000000 
 2790000    1.0604246  -0.49810153    20.858477 6.1363994e-05 7.7220927e-05 9.9912838e-05 6.9582188e-06      1000000 
 2800000   0.99170835  -0.46873891    20.785018 0.00031868277 0.00054839753 0.00021539368 0.00019225711      1000000 
 2810000    1.0441328  -0.53192598    20.785513 0.00021905665 0.00035357552 0.00052832673 -0.00022473231      1000000 
 2820000   0.96810518  -0.53207908    20.846618 -6.5085576e-05 -0.00012987447 -0.00031646018 0.00025107792      1000000 
 2830000    1.0180948  -0.48173592    20.855229 -9.5468409e-06 -0.00026563176 0.00029014682 -5.3155585e-05      1000000 
 2840000   0.94455812  -0.44855436    20.871437 3.1994037e-05 -7.6483582e-05 0.00018866364 -1.6197946e-05      1000000 
 2850000    1.0233971  -0.54394797    20.827959 3.4510324e-05 -0.000157301 0.00025524935 5.5826171e-06      1000000 
 2860000   0.97582508  -0.53027493    20.837547 -9.8977739e-05 2.4832638e-06 -8.0142271e-05 -0.00021927421      1000000 
 2870000   0.98686556  -0.46039568    20.892023 -0.00038302758 -0.00030581714 -0.00032445364 -0.00051881195      1000000 
 2880000     1.029658  -0.45059582    20.884825 -0.00012236755 -0.00032083039 0.0001030762 -0.00014934847      1000000 
 2890000    1.0294137  -0.53684227    20.814951 -6.629188e-05 -1.5666663e-05 -0.00034645073 0.00016324176      1000000 
 2900000    1.0429654  -0.51314713    20.831423 0.00028265877 6.2686984e-05 0.00048130807 0.00030398127      1000000 
 2910000    1.0461426  -0.51342124    20.728506 -0.00022174233 -0.00012193551 7.1140661e-05 -0.00061443215      1000000 
 2920000    1.0158685  -0.45154519    20.866584 0.00017635221 0.00015385009 6.2774313e-05 0.00031243221      1000000 
 2930000    1.0137056   -0.5161172    20.792158 0.00067939977 0.00053524798 0.00059098533 0.00091196601      1000000 
 2940000    1.0027303  -0.52680041    20.853008 0.00043301149 0.00032940744 0.0003262623 0.00064336474      1000000 
 2950000   0.95438724  -0.57656993    20.741772 0.00015255543 -0.00018590316 0.00016820019 0.00047536928      1000000 
 2960000    1.0037343  -0.47287744    20.820486 -0.00010960558 0.00010455897 -0.00017343689 -0.00025993882      1000000 
 2970000   0.95473631  -0.54273981    20.811469 -5.5971112e-05 0.00012761575 -9.8290754e-05 -0.00019723833      1000000 
 2980000    1.0243093  -0.51585641    20.790256 -2.2196074e-05 -0.00010617852 -7.1283937e-05 0.00011087424      1000000 
 2990000    1.0574161  -0.50760218    20.780379 7.9765299e-05 0.0001916643 -0.00019960612 0.00024723771      1000000 
 3000000   0.87900521   -0.5208983    20.789152 5.9696459e-05 0.00022000137 -0.00012100894 8.0096947e-05      1000000 
 3010000    1.0440692  -0.49424596    20.823711 8.8020583e-05 6.2980257e-05 -4.4710978e-05 0.00024579247      1000000 
 3020000   0.99051937   -0.5225054    20.751584 0.00023384492 -1.2340286e-05 0.00034113282 0.00037274222      1000000 
 3030000   0.97107735  -0.45016741    20.832533 -0.00013770398 -0.00016995262 -0.00023024102 -1.2918296e-05      1000000 
 3040000    1.0114266  -0.46963246    20.828914 0.00011825093 0.00028912025 -0.00010871024 0.00017434279      1000000 
 3050000   0.97957897   -0.5137617    20.826794 9.4067327e-05 6.3280513e-05 0.00036482342 -0.00014590195      1000000 
 3060000    1.0386239  -0.49162028    20.871501 0.00019841816 0.00041638335 0.00028242757 -0.00010355645      1000000 
 3070000   0.94426935  -0.54587814    20.768806 -1.8088866e-05 6.0690729e-05 2.8226776e-05 -0.0001431841      1000000 
 3080000    1.0022254  -0.51683343    20.779733 4.044619e-05 1.4055177e-05 -8.5988276e-05 0.00019327167      1000000 
 3090000    1.0169817  -0.38522906     20.97525 -0.00038331507 -0.00022772996 -0.00064901396 -0.0002732013      1000000 
 3100000    0.9907436  -0.37294165    20.888476 2.2447789e-05 1.4004003e-05 -9.7414395e-06 6.3080804e-05      1000000 
 3110000   0.99555948  -0.51400413    20.779121 -3.4639778e-05 -3.5079828e-05 5.5884895e-05 -0.0001247244      1000000 
 3120000    0.9763151  -0.47554198    20.682939 0.00031795872 0.00059922333 -0.00010823872 0.00046289155      1000000 
 3130000   0.94135015  -0.47367383    20.793571 -0.000172002 -0.00027715604 5.5622983e-05 -0.00029447295      1000000 
 3140000    1.0238608  -0.47373975    20.821144 -5.3621696e-06 0.00022314555 -0.00027841764 3.9185583e-05      1000000 
 3150000    1.0377115  -0.45411001    20.830294 0.00014867122 -3.4567363e-06 0.00024683797 0.00020263243      1000000 
 3160000    0.9949298  -0.48254474     20.83098 5.5270115e-05 -0.00010617855 -4.9927482e-05 0.00032191637      1000000 
 3170000   0.97441305  -0.47759226    20.953386 -1.2299732e-05 -0.00045790324 0.00027138632 0.00014961773      1000000 
 3180000    1.0668451  -0.48215126    20.768107 -6.1181895e-05 -5.5918618e-05  0.000195977 -0.00032360407      1000000 
 3190000    1.0669417  -0.49228151    20.766715 0.00016155471 0.00018470228 0.00012070126 0.00017926061      1000000 
 3200000   0.98849849  -0.42906327    20.838216 -0.00025535763 -0.00036755887 -0.00044343356 4.4919518e-05      1000000 
 3210000   0.96621781  -0.46796537     20.86686 -0.00022868735 -6.4060045e-05 -0.00035535384 -0.00026664816      1000000 
 3220000   0.93688256  -0.45116065    20.963386 -3.7412362e-05 -0.0002156178 4.6278826e-05 5.7101892e-05      1000000 
 3230000    1.0384218  -0.49248464    20.770868 -0.00055386364 -0.00039512193 -0.00068013082 -0.00058633817      1000000 
 3240000   0.98822046  -0.44741529    20.890211 -0.00020146573 -0.00019000652 -0.00023059549 -0.00018379519      1000000 
 3250000    1.0078694  -0.55023514    20.805735 -1.3799789e-05 0.00016884365 -8.3518087e-05 -0.00012672493      1000000 
 3260000   0.99098711  -0.49782946    20.882083 -0.00021143159 -0.00041090583 0.0002106769 -0.00043406583      1000000 
 3270000   0.99608973  -0.48049681    20.826632 -0.00022983209 -6.6221287e-05 -0.00027837496 -0.00034490001      1000000 
 3280000    1.0537546  -0.50705444    20.766991 0.00025584282 0.00030502396 0.00029783115 0.00016467336      1000000 
 3290000   0.97818291  -0.46420951    20.907358 1.1374142e-05 -4.3306522e-05 0.00010796807 -3.053912e-05      1000000 
 3300000    1.0104576  -0.49117925    20.867621 0.00021989052 -3.1761037e-05 0.00018812418 0.00050330843      1000000 
 3310000   0.97188545   -0.4702162    20.832968 -0.00025589182 -0.00027885463 -0.00053898669 5.0165857e-05      1000000 
 3320000    1.0685748  -0.39454185      20.7587 -4.5782809e-05 2.8037919e-05 5.7516463e-05 -0.00022290281      1000000 
 3330000    1.0161224  -0.43278766    20.914472 0.0001576773 0.00014984955 -2.7230962e-07 0.00032345465      1000000 
 3340000   0.94366556  -0.52784979    20.755758 -0.00015297374 -4.1452376e-05 -0.00026137773 -0.00015609113      1000000 
 3350000   0.99713025  -0.45761598    20.840422 1.6592552e-05 0.00013695631 -0.00027188511 0.00018470645      1000000 
 3360000   0.99815325  -0.46480753     20.78915 -0.00010163068 1.8200705e-05 -6.2851149e-05 -0.00026024161      1000000 
 3370000    1.0616313  -0.51603565    20.872417 3.8532292e-05 -2.0009464e-05 0.00010450423 3.1102115e-05      1000000 
 3380000    1.0398725  -0.58235697    20.773315 0.00010450531 0.00015410409 0.00019483147 -3.5419619e-05      1000000 
 3390000   0.97126306  -0.45849411    20.895627 0.00024134235 0.00030660371 0.00036772486 4.9698493e-05      1000000 
 3400000    1.0004547  -0.44566357    20.803088 -8.4621998e-05 -0.00039456839 3.1234299e-05 0.0001094681      1000000 
 3410000    1.0521363  -0.56384079    20.898525 0.00023742279 0.00020294211 0.00032624587 0.00018308038      1000000 
 3420000    1.0506171  -0.47989479    20.897473 -0.00010351842 -0.00043376155 -0.00014587485 0.00026908113      1000000 
 3430000    1.0096861  -0.49466375    20.809269 -0.00018469157 -0.00018208722 -0.00020984463 -0.00016214287      1000000 
 3440000    1.0414701  -0.44214228    20.826481 0.00017911404 -5.5645995e-05 3.3760821e-05 0.00055922728      1000000 
 3450000   0.98607898  -0.51569155    20.754606 -0.00036082145 -0.0003598808 -0.00033328095 -0.00038930259      1000000 
 3460000    1.0195906  -0.49642161    20.783955 -0.0002122685 -7.4618973e-05 -0.00041154439 -0.00015064213      1000000 
 3470000    0.9401942  -0.52196054    20.822331 6.1542219e-05 -6.6093864e-05 0.00014117665 0.00010954387      1000000 
 3480000     1.012087  -0.56089547    20.781329 0.00017799396 0.0003268052 3.2474398e-05 0.00017470228      1000000 
 3490000   0.96776186  -0.50111697    20.751346 -9.8123655e-05 -0.0001470193 -0.00010118401 -4.6167659e-05      1000000 
 3500000    1.0590438  -0.47390602    20.930545 -0.00027529123 -0.00045528476 -0.00032577539 -4.481356e-05      1000000 
 3510000    1.0165908  -0.53231551     20.71927 -1.3498709e-05 -0.00022984714 -4.101081e-05 0.00023036182      1000000 
 3520000   0.99477763  -0.52798279    20.780192 8.0949561e-05 -4.6977996e-05 -7.1589836e-05 0.00036141651      1000000 
 3530000   0.92168838  -0.51124552     20.81978 0.00011953397 0.00015367005 -3.605435e-05 0.00024098621      1000000 
 3540000    1.0412986  -0.51208807    20.736247 0.00026660403 0.00059634003 6.6788059e-05  0.000136684      1000000 
 3550000    0.9690762   -0.4756389    20.888639 9.1849425e-05 0.0001197427 0.00021216924 -5.6363661e-05      1000000 
 3560000   0.91211286  -0.43899114    20.854907 -0.00017469349 -0.00010428323 -0.00060608649 0.00018628925      1000000 
 3570000   0.92467199  -0.51217601    20.859615 -4.3416899e-05 -0.00012727419 -4.8098876e-06 1.8333769e-06      1000000 
 3580000   0.99795509  -0.50853795    20.884817 -0.00031962408 0.00021629079 -0.00068504991 -0.00049011311      1000000 
 3590000     1.006386  -0.46507386    20.730455 0.0001750131 0.0003031767 0.00015392956 6.7933046e-05      1000000 
 3600000    0.9832583  -0.47833277    20.780502 -0.00021037084 -0.00010359974 2.0948769e-05 -0.00054846155      1000000 
 3610000    1.0693351  -0.50458163    20.794944 -0.00010789422 -0.00027617273 -4.7889312e-05 3.7937066e-07      1000000 
 3620000   0.97639396  -0.50568899    20.824591 -5.3486635e-05 -8.8815133e-06 -6.641928e-05 -8.5159112e-05      1000000 
 3630000   0.99026023   -0.5336941    20.808294 -0.00021403273 -0.00040966006 2.3478066e-05 -0.00025591621      1000000 
 3640000    1.1069172  -0.41591165    20.812499 -0.00024644984 -0.00026738712 -0.00012652349 -0.00034543891      1000000 
 3650000   0.98649236  -0.46878409    20.912191 -3.5796917e-05 0.00018311763 -3.2067691e-05 -0.00025844069      1000000 
 3660000     1.073461  -0.56735606    20.789845 0.00014575949 0.00045252703 1.9017924e-05 -3.4266472e-05      1000000 
 3670000    1.0451918  -0.51712389    20.860584 0.00019993351 0.00021910947 0.00024396261 0.00013672846      1000000 
 3680000    1.0050528  -0.53701358    20.787013 -0.0003136448 -0.0002534544 -0.00021535025 -0.00047212974      1000000 
 3690000    0.9623829  -0.48944823    20.825452 0.00026676676 0.00034483375 0.00028362069 0.00017184582      1000000 
 3700000   0.97937103  -0.48378371    20.818337 0.00037219826 0.00037437677 0.00039418833 0.00034802969      1000000 
 3710000    1.1116229  -0.48312529    20.800963 0.0001307387 0.00025722948 -0.00019391069 0.00032889732      1000000 
 3720000    1.0066517  -0.44272273    20.837557 -0.00010969858 1.6293152e-05 -0.00021540544 -0.00012998344      1000000 
 3730000    1.0078341  -0.48116951    20.904924 0.00036246128 0.00030645103 0.00042035722 0.0003605756      1000000 
 3740000    1.0028006  -0.49990926    20.849816 5.0530657e-05 -2.1235482e-05 0.00026625265 -9.3425191e-05      1000000 
 3750000   0.97820372  -0.39789541    20.870943 9.4396884e-05 0.00026873897 1.9156849e-05 -4.7051639e-06      1000000 
 3760000    1.0012938  -0.42502376    20.925267 -7.1960725e-05 0.00013384333 -0.00019195121 -0.00015777429      1000000 
 3770000   0.98417987   -0.4322238    20.893448 -0.00026446545 -0.00044430402 -9.9131302e-06 -0.0003391792      1000000 
 3780000    1.0101033  -0.41446705    20.841291 -1.4792372e-05 0.00030556776 4.2071106e-05 -0.00039201598      1000000 
 3790000   0.97138196  -0.48599181    20.756025 -0.0001335005 -0.00015766067 -0.00014658726 -9.6253553e-05      1000000 
 3800000    1.0506912  -0.44258978    20.838426 -0.00028917267 -0.0003769198 -0.00047518375 -1.5414449e-05      1000000 
 3810000   0.95594797  -0.44313762    20.848969 -7.734325e-05 6.2804603e-05 -0.00027849606 -1.6338292e-05      1000000 
 3820000    1.0103706  -0.46313414     20.88069 4.980499e-05 0.00018990117 9.1560656e-05 -0.00013204685      1000000 
 3830000    1.0379938  -0.43498657    20.900405 -0.00015207779 0.00021512308 -0.00038031766 -0.00029103878      1000000 
 3840000    1.0438693  -0.44348058    20.837632 0.00014218466 8.1238093e-05 0.00024842577 9.6890115e-05      1000000 
 3850000    1.0512508  -0.40579796    20.814621 0.00038805809 0.00050669552 0.00039949129 0.00025798746      1000000 
 3860000   0.97881744  -0.44967098    20.746178 0.00026075077 0.00020738567 -0.00014398404 0.00071885069      1000000 
 3870000    0.9892779  -0.48347767    20.787429 -0.00013291596 -0.00021672164 -2.3958935e-06 -0.00017963035      1000000 
 3880000   0.97802255  -0.49803216    20.884319 -0.00022217946 -0.00028341519 -9.4927745e-05 -0.00028819544      1000000 
 3890000    1.0289367  -0.47050134    20.786441 0.00018310694 1.3280599e-05 0.00025598688 0.00028005333      1000000 
 3900000   0.93172939  -0.55023319    20.782611 -0.00021583189 -0.0003278597 -5.1989372e-05 -0.0002676466      1000000 
 3910000    0.9510661  -0.49636417    20.850278 -0.00026485363 -0.00030178465 -0.00041024929 -8.2526962e-05      1000000 
 3920000    1.0608133  -0.54814225    20.993396 -0.00012129663 0.0001261278 -0.00024985304 -0.00024016465      1000000 
 3930000    1.0150031  -0.41506795    20.802982 -0.00044633311 -0.00044631334 -0.00042121827 -0.00047146772      1000000 
 3940000    1.0726957  -0.51162761     20.80532 -9.97474e-05 -6.2316661e-05 -0.00022560717 -1.1318372e-05      1000000 
 3950000    1.0504976  -0.45319735      20.9323 -0.00025827251 2.5829278e-05 -0.00053908428 -0.00026156253      1000000 
 3960000   0.99985882  -0.50796278    20.813631 8.7537593e-05 -5.7835101e-06 -1.4841928e-05 0.00028323822      1000000 
 3970000    1.0122999  -0.39797956    20.822326 2.2860594e-05 -0.00011838343 -0.00024307555 0.00043004076      1000000 
 3980000    1.0448926  -0.43345916    20.859152 8.5019611e-05 -0.00010297045 -0.00017466397 0.00053269325      1000000 
 3990000    1.0758353  -0.50076136    20.735979 -2.541874e-06 0.00020907862 -0.00020417008 -1.2534164e-05      1000000 
 4000000    1.0150677  -0.48931271    20.759744 -0.0002649715 -0.00041203504 -0.00022666299 -0.00015621648      1000000 
 4001000    1.0168675  -0.46546996    20.809614 -0.00011828975 -8.9068081e-05 8.5043028e-05 -0.00035084421      1000000 
Loop time of 180.907 on 1 procs for 3000000 steps with 400 atoms

Performance: 14327826.046 tau/day, 16583.132 timesteps/s
99.8% CPU use with 1 MPI tasks x no OpenMP threads

MPI task timing breakdown:
Section |  min time  |  avg time  |  max time  |%varavg| %total
---------------------------------------------------------------
Pair    | 34.053     | 34.053     | 34.053     |   0.0 | 18.82
Bond    | 67.867     | 67.867     | 67.867     |   0.0 | 37.51
Neigh   | 15.215     | 15.215     | 15.215     |   0.0 |  8.41
Comm    | 1.3524     | 1.3524     | 1.3524     |   0.0 |  0.75
Output  | 1.1863     | 1.1863     | 1.1863     |   0.0 |  0.66
Modify  | 57.053     | 57.053     | 57.053     |   0.0 | 31.54
Other   |            | 4.181      |            |       |  2.31

Nlocal:    400 ave 400 max 400 min
Histogram: 1 0 0 0 0 0 0 0 0 0
Nghost:    56 ave 56 max 56 min
Histogram: 1 0 0 0 0 0 0 0 0 0
Neighs:    1887 ave 1887 max 1887 min
Histogram: 1 0 0 0 0 0 0 0 0 0

Total # of neighbors = 1887
Ave neighs/atom = 4.7175
Ave special neighs/atom = 1.99
Neighbor list builds = 71992
Dangerous builds = 0
Total wall time: 0:03:59
