LAMMPS (3 Mar 2020)
###
# Reference paper:
# K. Kremer and G. S. Grest
# Dynamics of entangled linear polymer melts: A molecular-dynamics simulation
# J Chem Phys 92, 5057 (1990)
###

###
# Box and units  (use LJ units and periodic boundaries)
###

units lj

atom_style angle #with stiffness

boundary        p p p

###
# Pair interactions require lists of neighbours to be calculated
###
neighbor 1.9 bin
neigh_modify every 1 delay 1 check yes

### Generate RESTART file, SPECIAL format, not a .txt file ###
### Useful if simulation crashes ###
restart 1000000 polymer.restart
#############################

#processors 2 1 1

### READ "start" data file ###
read_data lammps_input
  orthogonal box = (-50 -50 -50) to (50 50 50)
  1 by 1 by 1 MPI processor grid
  reading atoms ...
  400 atoms
  reading velocities ...
  400 velocities
  scanning bonds ...
  1 = max bonds/atom
  scanning angles ...
  1 = max angles/atom
  reading bonds ...
  398 bonds
  reading angles ...
  396 angles
  2 = max # of 1-2 neighbors
  2 = max # of 1-3 neighbors
  4 = max # of 1-4 neighbors
  6 = max # of special neighbors
  special bonds CPU = 0.00091029 secs
  read_data CPU = 0.0134227 secs
######################

### READ "REstart" data file ###
#read_restart DNAunzipping.restart
######################

### reset timestep ###
reset_timestep 0
######################

###
# Define groups (atom type 1 is group 'all')
###
#group all type *

###
# Dump configs - "simple dumpings"
###

###
# Dump configs + box coords
###
#dump   1   all   custom   10000   DNAunzipping.dump.*  id  x y z  ix iy iz
#dump_modify   1   format "%d %.5f %.5f %.5f %d %d %d"
dump   id all atom 1000 dump.DNAunzipping

###################################################################
# Stiffness term
#
# E = K * (1+cos(theta)), K>0
#
angle_style   cosine
angle_coeff   1 10.0
###################################################################

###################################################################
# Pair interaction between non-bonded atoms
#
#  soft potential, for PUSHING apart overlapping atoms
#  potential E=A*(1 + cos(pi*r/r_c))
#
#  1.12246 = 2^(1/6) is the cut-off r_c

pair_style     soft 1.12246152962189

#
#  pair_coeff for soft, specify 3:
#    * atom type interacting with
#    * atom type
#    * A
#

pair_coeff * * 100.0 1.12246152962189

###################################################################
# Pair interaction between bonded atoms
#
# Harmonic potential:
#
#  E= K * (R-R0)^2
#

bond_style   harmonic

#
# For style harmonic, specify:
#   * bond type
#   * K (energy/distance^2)
#   * R0 (distance)
#

bond_coeff   1   60.0   1.1

###################################################


###
# Set up fixes
###

fix 1 all   nve   ###NVE ensemble
fix 2 all   langevin   1.0 1.0   1.0   15   ###Langevin integrator Tstart Tstop 1/friction rndseed

##### Sample thermodynamic info  (temperature, energy, pressure, etc.) #####
thermo 10000
thermo_style   custom   step  temp  epair  emol  press pxx pyy pzz  vol
############################################################################

###
# set timestep of integrator
###
timestep 0.01 #0.012

###
# run integration for a number of steps
###
run 1000
Neighbor list info ...
  update every 1 steps, delay 1 steps, check yes
  max neighbors/atom: 2000, page size: 100000
  master list distance cutoff = 3.02246
  ghost atom cutoff = 3.02246
  binsize = 1.51123, bins = 67 67 67
  1 neighbor lists, perpetual/occasional/extra = 1 0 0
  (1) pair soft, perpetual
      attributes: half, newton on
      pair build: half/bin/newton
      stencil: half/bin/3d/newton
      bin: standard
WARNING: Communication cutoff 3.02246 is shorter than a bond length based estimate of 3.55. This may lead to errors. (src/comm.cpp:686)
Per MPI rank memory allocation (min/avg/max) = 7.641 | 7.641 | 7.641 Mbytes
Step Temp E_pair E_mol Press Pxx Pyy Pzz Volume 
       0            0    176.82657    10.730873  0.058863411  0.071581186   0.06895181  0.036057238      1000000 
    1000   0.98401172 0.00048469234    1.8058753 7.3888648e-05 0.00015160201 5.0988947e-05 1.9074984e-05      1000000 
Loop time of 0.0832064 on 1 procs for 1000 steps with 400 atoms

Performance: 10383817.253 tau/day, 12018.307 timesteps/s
99.8% CPU use with 1 MPI tasks x no OpenMP threads

MPI task timing breakdown:
Section |  min time  |  avg time  |  max time  |%varavg| %total
---------------------------------------------------------------
Pair    | 0.0069466  | 0.0069466  | 0.0069466  |   0.0 |  8.35
Bond    | 0.016323   | 0.016323   | 0.016323   |   0.0 | 19.62
Neigh   | 0.036078   | 0.036078   | 0.036078   |   0.0 | 43.36
Comm    | 0.00057594 | 0.00057594 | 0.00057594 |   0.0 |  0.69
Output  | 0.00048596 | 0.00048596 | 0.00048596 |   0.0 |  0.58
Modify  | 0.021172   | 0.021172   | 0.021172   |   0.0 | 25.44
Other   |            | 0.001625   |            |       |  1.95

Nlocal:    400 ave 400 max 400 min
Histogram: 1 0 0 0 0 0 0 0 0 0
Nghost:    0 ave 0 max 0 min
Histogram: 1 0 0 0 0 0 0 0 0 0
Neighs:    182 ave 182 max 182 min
Histogram: 1 0 0 0 0 0 0 0 0 0

Total # of neighbors = 182
Ave neighs/atom = 0.455
Ave special neighs/atom = 5.94
Neighbor list builds = 71
Dangerous builds = 0

###################################################################
# Pair interaction between non-bonded atoms
#
#  Lennard-Jones 12-6 potential with cutoff:
#  potential E=4epsilon[ (sigma/r)^12 - (sigma/r)^6]  for r<r_cut
#
#  1.12246 = 2^(1/6) is the minimum of the potential

pair_style      lj/cut 1.12246152962189

#
#  pair_modify shift yes adds a constant to the potential such
#  that E(r_cut)=0. Forces remains unchanged.
#

pair_modify     shift yes

#
#  pair_coeff for lj/cut, specify 4:
#    * atom type interacting with
#    * atom type
#    * epsilon (energy units)
#    * sigma (distance units)
#

pair_coeff      * * 1.0 1.0 1.12246152962189

include pair.unzipping.equilibration
 pair_coeff            1           1   3.0000000000000000        1.0000000000000000        2.5000000000000000
 pair_coeff            2           2   3.0000000000000000        1.0000000000000000        2.5000000000000000
 pair_coeff            3           3   3.0000000000000000        1.0000000000000000        2.5000000000000000
 pair_coeff            4           4   3.0000000000000000        1.0000000000000000        2.5000000000000000
 pair_coeff            5           5   3.0000000000000000        1.0000000000000000        2.5000000000000000
 pair_coeff            6           6   3.0000000000000000        1.0000000000000000        2.5000000000000000
 pair_coeff            7           7   3.0000000000000000        1.0000000000000000        2.5000000000000000
 pair_coeff            8           8   3.0000000000000000        1.0000000000000000        2.5000000000000000
 pair_coeff            9           9   3.0000000000000000        1.0000000000000000        2.5000000000000000
 pair_coeff           10          10   3.0000000000000000        1.0000000000000000        2.5000000000000000
 pair_coeff           11          11   3.0000000000000000        1.0000000000000000        2.5000000000000000
 pair_coeff           12          12   3.0000000000000000        1.0000000000000000        2.5000000000000000
 pair_coeff           13          13   3.0000000000000000        1.0000000000000000        2.5000000000000000
 pair_coeff           14          14   3.0000000000000000        1.0000000000000000        2.5000000000000000
 pair_coeff           15          15   3.0000000000000000        1.0000000000000000        2.5000000000000000
 pair_coeff           16          16   3.0000000000000000        1.0000000000000000        2.5000000000000000
 pair_coeff           17          17   3.0000000000000000        1.0000000000000000        2.5000000000000000
 pair_coeff           18          18   3.0000000000000000        1.0000000000000000        2.5000000000000000
 pair_coeff           19          19   3.0000000000000000        1.0000000000000000        2.5000000000000000
 pair_coeff           20          20   3.0000000000000000        1.0000000000000000        2.5000000000000000
 pair_coeff           21          21   3.0000000000000000        1.0000000000000000        2.5000000000000000
 pair_coeff           22          22   3.0000000000000000        1.0000000000000000        2.5000000000000000
 pair_coeff           23          23   3.0000000000000000        1.0000000000000000        2.5000000000000000
 pair_coeff           24          24   3.0000000000000000        1.0000000000000000        2.5000000000000000
 pair_coeff           25          25   3.0000000000000000        1.0000000000000000        2.5000000000000000
 pair_coeff           26          26   3.0000000000000000        1.0000000000000000        2.5000000000000000
 pair_coeff           27          27   3.0000000000000000        1.0000000000000000        2.5000000000000000
 pair_coeff           28          28   3.0000000000000000        1.0000000000000000        2.5000000000000000
 pair_coeff           29          29   3.0000000000000000        1.0000000000000000        2.5000000000000000
 pair_coeff           30          30   3.0000000000000000        1.0000000000000000        2.5000000000000000
 pair_coeff           31          31   3.0000000000000000        1.0000000000000000        2.5000000000000000
 pair_coeff           32          32   3.0000000000000000        1.0000000000000000        2.5000000000000000
 pair_coeff           33          33   3.0000000000000000        1.0000000000000000        2.5000000000000000
 pair_coeff           34          34   3.0000000000000000        1.0000000000000000        2.5000000000000000
 pair_coeff           35          35   3.0000000000000000        1.0000000000000000        2.5000000000000000
 pair_coeff           36          36   3.0000000000000000        1.0000000000000000        2.5000000000000000
 pair_coeff           37          37   3.0000000000000000        1.0000000000000000        2.5000000000000000
 pair_coeff           38          38   3.0000000000000000        1.0000000000000000        2.5000000000000000
 pair_coeff           39          39   3.0000000000000000        1.0000000000000000        2.5000000000000000
 pair_coeff           40          40   3.0000000000000000        1.0000000000000000        2.5000000000000000
 pair_coeff           41          41   3.0000000000000000        1.0000000000000000        2.5000000000000000
 pair_coeff           42          42   3.0000000000000000        1.0000000000000000        2.5000000000000000
 pair_coeff           43          43   3.0000000000000000        1.0000000000000000        2.5000000000000000
 pair_coeff           44          44   3.0000000000000000        1.0000000000000000        2.5000000000000000
 pair_coeff           45          45   3.0000000000000000        1.0000000000000000        2.5000000000000000
 pair_coeff           46          46   3.0000000000000000        1.0000000000000000        2.5000000000000000
 pair_coeff           47          47   3.0000000000000000        1.0000000000000000        2.5000000000000000
 pair_coeff           48          48   3.0000000000000000        1.0000000000000000        2.5000000000000000
 pair_coeff           49          49   3.0000000000000000        1.0000000000000000        2.5000000000000000
 pair_coeff           50          50   3.0000000000000000        1.0000000000000000        2.5000000000000000
 pair_coeff           51          51   3.0000000000000000        1.0000000000000000        2.5000000000000000
 pair_coeff           52          52   3.0000000000000000        1.0000000000000000        2.5000000000000000
 pair_coeff           53          53   3.0000000000000000        1.0000000000000000        2.5000000000000000
 pair_coeff           54          54   3.0000000000000000        1.0000000000000000        2.5000000000000000
 pair_coeff           55          55   3.0000000000000000        1.0000000000000000        2.5000000000000000
 pair_coeff           56          56   3.0000000000000000        1.0000000000000000        2.5000000000000000
 pair_coeff           57          57   3.0000000000000000        1.0000000000000000        2.5000000000000000
 pair_coeff           58          58   3.0000000000000000        1.0000000000000000        2.5000000000000000
 pair_coeff           59          59   3.0000000000000000        1.0000000000000000        2.5000000000000000
 pair_coeff           60          60   3.0000000000000000        1.0000000000000000        2.5000000000000000
 pair_coeff           61          61   3.0000000000000000        1.0000000000000000        2.5000000000000000
 pair_coeff           62          62   3.0000000000000000        1.0000000000000000        2.5000000000000000
 pair_coeff           63          63   3.0000000000000000        1.0000000000000000        2.5000000000000000
 pair_coeff           64          64   3.0000000000000000        1.0000000000000000        2.5000000000000000
 pair_coeff           65          65   3.0000000000000000        1.0000000000000000        2.5000000000000000
 pair_coeff           66          66   3.0000000000000000        1.0000000000000000        2.5000000000000000
 pair_coeff           67          67   3.0000000000000000        1.0000000000000000        2.5000000000000000
 pair_coeff           68          68   3.0000000000000000        1.0000000000000000        2.5000000000000000
 pair_coeff           69          69   3.0000000000000000        1.0000000000000000        2.5000000000000000
 pair_coeff           70          70   3.0000000000000000        1.0000000000000000        2.5000000000000000
 pair_coeff           71          71   3.0000000000000000        1.0000000000000000        2.5000000000000000
 pair_coeff           72          72   3.0000000000000000        1.0000000000000000        2.5000000000000000
 pair_coeff           73          73   3.0000000000000000        1.0000000000000000        2.5000000000000000
 pair_coeff           74          74   3.0000000000000000        1.0000000000000000        2.5000000000000000
 pair_coeff           75          75   3.0000000000000000        1.0000000000000000        2.5000000000000000
 pair_coeff           76          76   3.0000000000000000        1.0000000000000000        2.5000000000000000
 pair_coeff           77          77   3.0000000000000000        1.0000000000000000        2.5000000000000000
 pair_coeff           78          78   3.0000000000000000        1.0000000000000000        2.5000000000000000
 pair_coeff           79          79   3.0000000000000000        1.0000000000000000        2.5000000000000000
 pair_coeff           80          80   3.0000000000000000        1.0000000000000000        2.5000000000000000
 pair_coeff           81          81   3.0000000000000000        1.0000000000000000        2.5000000000000000
 pair_coeff           82          82   3.0000000000000000        1.0000000000000000        2.5000000000000000
 pair_coeff           83          83   3.0000000000000000        1.0000000000000000        2.5000000000000000
 pair_coeff           84          84   3.0000000000000000        1.0000000000000000        2.5000000000000000
 pair_coeff           85          85   3.0000000000000000        1.0000000000000000        2.5000000000000000
 pair_coeff           86          86   3.0000000000000000        1.0000000000000000        2.5000000000000000
 pair_coeff           87          87   3.0000000000000000        1.0000000000000000        2.5000000000000000
 pair_coeff           88          88   3.0000000000000000        1.0000000000000000        2.5000000000000000
 pair_coeff           89          89   3.0000000000000000        1.0000000000000000        2.5000000000000000
 pair_coeff           90          90   3.0000000000000000        1.0000000000000000        2.5000000000000000
 pair_coeff           91          91   3.0000000000000000        1.0000000000000000        2.5000000000000000
 pair_coeff           92          92   3.0000000000000000        1.0000000000000000        2.5000000000000000
 pair_coeff           93          93   3.0000000000000000        1.0000000000000000        2.5000000000000000
 pair_coeff           94          94   3.0000000000000000        1.0000000000000000        2.5000000000000000
 pair_coeff           95          95   3.0000000000000000        1.0000000000000000        2.5000000000000000
 pair_coeff           96          96   3.0000000000000000        1.0000000000000000        2.5000000000000000
 pair_coeff           97          97   3.0000000000000000        1.0000000000000000        2.5000000000000000
 pair_coeff           98          98   3.0000000000000000        1.0000000000000000        2.5000000000000000
 pair_coeff           99          99   3.0000000000000000        1.0000000000000000        2.5000000000000000
 pair_coeff          100         100   3.0000000000000000        1.0000000000000000        2.5000000000000000
 pair_coeff          101         101   3.0000000000000000        1.0000000000000000        2.5000000000000000
 pair_coeff          102         102   3.0000000000000000        1.0000000000000000        2.5000000000000000
 pair_coeff          103         103   3.0000000000000000        1.0000000000000000        2.5000000000000000
 pair_coeff          104         104   3.0000000000000000        1.0000000000000000        2.5000000000000000
 pair_coeff          105         105   3.0000000000000000        1.0000000000000000        2.5000000000000000
 pair_coeff          106         106   3.0000000000000000        1.0000000000000000        2.5000000000000000
 pair_coeff          107         107   3.0000000000000000        1.0000000000000000        2.5000000000000000
 pair_coeff          108         108   3.0000000000000000        1.0000000000000000        2.5000000000000000
 pair_coeff          109         109   3.0000000000000000        1.0000000000000000        2.5000000000000000
 pair_coeff          110         110   3.0000000000000000        1.0000000000000000        2.5000000000000000
 pair_coeff          111         111   3.0000000000000000        1.0000000000000000        2.5000000000000000
 pair_coeff          112         112   3.0000000000000000        1.0000000000000000        2.5000000000000000
 pair_coeff          113         113   3.0000000000000000        1.0000000000000000        2.5000000000000000
 pair_coeff          114         114   3.0000000000000000        1.0000000000000000        2.5000000000000000
 pair_coeff          115         115   3.0000000000000000        1.0000000000000000        2.5000000000000000
 pair_coeff          116         116   3.0000000000000000        1.0000000000000000        2.5000000000000000
 pair_coeff          117         117   3.0000000000000000        1.0000000000000000        2.5000000000000000
 pair_coeff          118         118   3.0000000000000000        1.0000000000000000        2.5000000000000000
 pair_coeff          119         119   3.0000000000000000        1.0000000000000000        2.5000000000000000
 pair_coeff          120         120   3.0000000000000000        1.0000000000000000        2.5000000000000000
 pair_coeff          121         121   3.0000000000000000        1.0000000000000000        2.5000000000000000
 pair_coeff          122         122   3.0000000000000000        1.0000000000000000        2.5000000000000000
 pair_coeff          123         123   3.0000000000000000        1.0000000000000000        2.5000000000000000
 pair_coeff          124         124   3.0000000000000000        1.0000000000000000        2.5000000000000000
 pair_coeff          125         125   3.0000000000000000        1.0000000000000000        2.5000000000000000
 pair_coeff          126         126   3.0000000000000000        1.0000000000000000        2.5000000000000000
 pair_coeff          127         127   3.0000000000000000        1.0000000000000000        2.5000000000000000
 pair_coeff          128         128   3.0000000000000000        1.0000000000000000        2.5000000000000000
 pair_coeff          129         129   3.0000000000000000        1.0000000000000000        2.5000000000000000
 pair_coeff          130         130   3.0000000000000000        1.0000000000000000        2.5000000000000000
 pair_coeff          131         131   3.0000000000000000        1.0000000000000000        2.5000000000000000
 pair_coeff          132         132   3.0000000000000000        1.0000000000000000        2.5000000000000000
 pair_coeff          133         133   3.0000000000000000        1.0000000000000000        2.5000000000000000
 pair_coeff          134         134   3.0000000000000000        1.0000000000000000        2.5000000000000000
 pair_coeff          135         135   3.0000000000000000        1.0000000000000000        2.5000000000000000
 pair_coeff          136         136   3.0000000000000000        1.0000000000000000        2.5000000000000000
 pair_coeff          137         137   3.0000000000000000        1.0000000000000000        2.5000000000000000
 pair_coeff          138         138   3.0000000000000000        1.0000000000000000        2.5000000000000000
 pair_coeff          139         139   3.0000000000000000        1.0000000000000000        2.5000000000000000
 pair_coeff          140         140   3.0000000000000000        1.0000000000000000        2.5000000000000000
 pair_coeff          141         141   3.0000000000000000        1.0000000000000000        2.5000000000000000
 pair_coeff          142         142   3.0000000000000000        1.0000000000000000        2.5000000000000000
 pair_coeff          143         143   3.0000000000000000        1.0000000000000000        2.5000000000000000
 pair_coeff          144         144   3.0000000000000000        1.0000000000000000        2.5000000000000000
 pair_coeff          145         145   3.0000000000000000        1.0000000000000000        2.5000000000000000
 pair_coeff          146         146   3.0000000000000000        1.0000000000000000        2.5000000000000000
 pair_coeff          147         147   3.0000000000000000        1.0000000000000000        2.5000000000000000
 pair_coeff          148         148   3.0000000000000000        1.0000000000000000        2.5000000000000000
 pair_coeff          149         149   3.0000000000000000        1.0000000000000000        2.5000000000000000
 pair_coeff          150         150   3.0000000000000000        1.0000000000000000        2.5000000000000000
 pair_coeff          151         151   3.0000000000000000        1.0000000000000000        2.5000000000000000
 pair_coeff          152         152   3.0000000000000000        1.0000000000000000        2.5000000000000000
 pair_coeff          153         153   3.0000000000000000        1.0000000000000000        2.5000000000000000
 pair_coeff          154         154   3.0000000000000000        1.0000000000000000        2.5000000000000000
 pair_coeff          155         155   3.0000000000000000        1.0000000000000000        2.5000000000000000
 pair_coeff          156         156   3.0000000000000000        1.0000000000000000        2.5000000000000000
 pair_coeff          157         157   3.0000000000000000        1.0000000000000000        2.5000000000000000
 pair_coeff          158         158   3.0000000000000000        1.0000000000000000        2.5000000000000000
 pair_coeff          159         159   3.0000000000000000        1.0000000000000000        2.5000000000000000
 pair_coeff          160         160   3.0000000000000000        1.0000000000000000        2.5000000000000000
 pair_coeff          161         161   3.0000000000000000        1.0000000000000000        2.5000000000000000
 pair_coeff          162         162   3.0000000000000000        1.0000000000000000        2.5000000000000000
 pair_coeff          163         163   3.0000000000000000        1.0000000000000000        2.5000000000000000
 pair_coeff          164         164   3.0000000000000000        1.0000000000000000        2.5000000000000000
 pair_coeff          165         165   3.0000000000000000        1.0000000000000000        2.5000000000000000
 pair_coeff          166         166   3.0000000000000000        1.0000000000000000        2.5000000000000000
 pair_coeff          167         167   3.0000000000000000        1.0000000000000000        2.5000000000000000
 pair_coeff          168         168   3.0000000000000000        1.0000000000000000        2.5000000000000000
 pair_coeff          169         169   3.0000000000000000        1.0000000000000000        2.5000000000000000
 pair_coeff          170         170   3.0000000000000000        1.0000000000000000        2.5000000000000000
 pair_coeff          171         171   3.0000000000000000        1.0000000000000000        2.5000000000000000
 pair_coeff          172         172   3.0000000000000000        1.0000000000000000        2.5000000000000000
 pair_coeff          173         173   3.0000000000000000        1.0000000000000000        2.5000000000000000
 pair_coeff          174         174   3.0000000000000000        1.0000000000000000        2.5000000000000000
 pair_coeff          175         175   3.0000000000000000        1.0000000000000000        2.5000000000000000
 pair_coeff          176         176   3.0000000000000000        1.0000000000000000        2.5000000000000000
 pair_coeff          177         177   3.0000000000000000        1.0000000000000000        2.5000000000000000
 pair_coeff          178         178   3.0000000000000000        1.0000000000000000        2.5000000000000000
 pair_coeff          179         179   3.0000000000000000        1.0000000000000000        2.5000000000000000
 pair_coeff          180         180   3.0000000000000000        1.0000000000000000        2.5000000000000000
 pair_coeff          181         181   3.0000000000000000        1.0000000000000000        2.5000000000000000
 pair_coeff          182         182   3.0000000000000000        1.0000000000000000        2.5000000000000000
 pair_coeff          183         183   3.0000000000000000        1.0000000000000000        2.5000000000000000
 pair_coeff          184         184   3.0000000000000000        1.0000000000000000        2.5000000000000000
 pair_coeff          185         185   3.0000000000000000        1.0000000000000000        2.5000000000000000
 pair_coeff          186         186   3.0000000000000000        1.0000000000000000        2.5000000000000000
 pair_coeff          187         187   3.0000000000000000        1.0000000000000000        2.5000000000000000
 pair_coeff          188         188   3.0000000000000000        1.0000000000000000        2.5000000000000000
 pair_coeff          189         189   3.0000000000000000        1.0000000000000000        2.5000000000000000
 pair_coeff          190         190   3.0000000000000000        1.0000000000000000        2.5000000000000000
 pair_coeff          191         191   3.0000000000000000        1.0000000000000000        2.5000000000000000
 pair_coeff          192         192   3.0000000000000000        1.0000000000000000        2.5000000000000000
 pair_coeff          193         193   3.0000000000000000        1.0000000000000000        2.5000000000000000
 pair_coeff          194         194   3.0000000000000000        1.0000000000000000        2.5000000000000000
 pair_coeff          195         195   3.0000000000000000        1.0000000000000000        2.5000000000000000
 pair_coeff          196         196   3.0000000000000000        1.0000000000000000        2.5000000000000000
 pair_coeff          197         197   3.0000000000000000        1.0000000000000000        2.5000000000000000
 pair_coeff          198         198   3.0000000000000000        1.0000000000000000        2.5000000000000000
 pair_coeff          199         199   3.0000000000000000        1.0000000000000000        2.5000000000000000
 pair_coeff          200         200   3.0000000000000000        1.0000000000000000        2.5000000000000000

###################################################################
# Pair interaction between bonded atoms
#
# Fene potential + Lennard Jones 12-6:
#
#  E= - 0.5 K R0^2 ln[ 1- (r/R0)^2]
#     + 4epsilon[ (sigma/r)^12 - (sigma/r)^6] + epsilon
#

bond_style   fene

#
# For style fene, specify:
#   * bond type
#   * K (energy/distance^2)
#   * R0 (distance)
#   * epsilon (energy)  (LJ component)
#   * sigma (distance)  (LJ component)
#

special_bonds fene #<=== I M P O R T A N T (new command)
  2 = max # of 1-2 neighbors
  6 = max # of special neighbors
  special bonds CPU = 0.000148699 secs

bond_coeff   1   30.0   1.6   1.0   1.0

###################################################

###
# Set up fixes
###

fix 1 all   nve   ###NVE ensemble
fix 2 all   langevin   1.0 1.0   1.0  69   ###Langevin integrator Tstart Tstop 1/friction rndseed

##### Sample thermodynamic info  (temperature, energy, pressure, etc.) #####
thermo 10000
thermo_style   custom   step  temp  epair  emol  press pxx pyy pzz  vol
############################################################################

###
# set timestep of integrator
###
timestep 0.01

###
# run integration for a number of steps
###
run 1000000
Neighbor list info ...
  update every 1 steps, delay 1 steps, check yes
  max neighbors/atom: 2000, page size: 100000
  master list distance cutoff = 4.4
  ghost atom cutoff = 4.4
  binsize = 2.2, bins = 46 46 46
  1 neighbor lists, perpetual/occasional/extra = 1 0 0
  (1) pair lj/cut, perpetual
      attributes: half, newton on
      pair build: half/bin/newton
      stencil: half/bin/3d/newton
      bin: standard
Per MPI rank memory allocation (min/avg/max) = 6.723 | 6.723 | 6.723 Mbytes
Step Temp E_pair E_mol Press Pxx Pyy Pzz Volume 
    1000   0.98401172 1.834466e-05    27.583939 -0.0085375823 -0.008490246 -0.0095241359 -0.0075983649      1000000 
   10000   0.95303143 -0.00095012841    21.146819 -0.00053577123 -0.00030831306 -0.000650204 -0.00064879663      1000000 
   20000   0.99827929 -0.070519947    20.964814 -1.9309308e-05 7.2174242e-05 -1.8479011e-05 -0.00011162315      1000000 
   30000    1.0372929 -0.054041315    21.077057 0.0001137275 0.00012703653 0.00035140336 -0.00013725738      1000000 
   40000    1.0087454 -0.087853782    21.018102 -0.00014048887 -6.873122e-05 -5.7612231e-05 -0.00029512315      1000000 
   50000   0.97720961  -0.10591685    20.971043 0.00021885438 0.00041877392 0.00015587362 8.191558e-05      1000000 
   60000    1.0297749  -0.16313415    21.010751 0.00052371858 0.00048193651 0.00030815111 0.00078106812      1000000 
   70000    1.0277272  -0.16975454    21.033294 -5.9239298e-05 3.5361039e-05 -0.00029885982 8.5780886e-05      1000000 
   80000   0.93489059  -0.16504921    20.940752 -5.012652e-05 -0.00018309205 -2.1059251e-06 3.481841e-05      1000000 
   90000   0.96758548  -0.25161398    20.968309 0.0001244162 0.00029954073 0.00011558959 -4.1881716e-05      1000000 
  100000     1.079399  -0.26021913    20.880817 6.6753276e-05 0.00014268342 0.00023302991 -0.00017545351      1000000 
  110000     0.953026  -0.29192938    20.930804 0.00033042351 0.00019369548 0.00016160254 0.00063597252      1000000 
  120000   0.99193766  -0.29183782     21.00206 -0.00016983576 -0.00030203534 -8.3343899e-05 -0.00012412803      1000000 
  130000   0.98371993   -0.3298923    20.934864 -0.00056116902 -0.00051990829 -0.00054075886 -0.00062283992      1000000 
  140000    1.0344936  -0.32513189    20.959235 0.0001000928 -0.00018959005 0.00015474277 0.0003351257      1000000 
  150000   0.96875733  -0.38644493    20.961825 7.9927747e-05 0.00011085924 9.6565502e-05 3.2358496e-05      1000000 
  160000   0.96852979  -0.42383707    20.895542 1.3666166e-05 -0.00021678523 2.396136e-05 0.00023382237      1000000 
  170000    0.9634327  -0.43382263    20.931464 -0.00023926501 -0.0002892405 -0.0002200332 -0.00020852132      1000000 
  180000    1.0743786  -0.45501761    20.922412 0.00056706135 0.0003931512 0.00034812203 0.00095991083      1000000 
  190000     1.036267  -0.52683439    20.985302 0.00021195733 0.00054252185 1.8814742e-05 7.4535393e-05      1000000 
  200000    1.0504343   -0.5051432    20.889387 1.532231e-05 0.0001363895 -0.00013563465 4.5212081e-05      1000000 
  210000    1.0495491  -0.54830287    20.933077 -6.8218541e-05 0.00031707554 -0.00044979584 -7.1935326e-05      1000000 
  220000   0.99216696  -0.56214972    20.877245 -0.00014667343 -9.4630297e-05 -6.795242e-05 -0.00027743756      1000000 
  230000   0.96266544   -0.6337096    20.821993 -0.00015074127 -0.00051839844 0.00033806357 -0.00027188893      1000000 
  240000    1.0200658  -0.64944952    20.924368 5.1461359e-05 -3.2817909e-05 0.00017938374 7.8182502e-06      1000000 
  250000    1.0205133  -0.77792402    20.856056 -7.1346854e-07 0.00010366029 1.9408272e-06 -0.00010774152      1000000 
  260000   0.96302406  -0.80316049    20.874062 -6.7268653e-05 -0.00028974089 0.00022725559 -0.00013932066      1000000 
  270000    1.0225352  -0.83641652    20.783402 -0.0002436922 -0.00016750178 -0.00036074883 -0.00020282598      1000000 
  280000   0.98447277  -0.80831172    20.952128 -0.00022169472 -4.4192864e-05 -0.00037476687 -0.00024612441      1000000 
  290000    1.0546626  -0.86836319     20.79737 -6.5207891e-06 -0.00034454538 0.00054756993 -0.00022258691      1000000 
  300000   0.98163961  -0.87798114    20.795978 0.0001980416 5.2023347e-05 0.0006816586 -0.00013955714      1000000 
  310000    1.0103939  -0.88396618    20.957597 -0.00021547981 0.00015547886 -0.00034302877 -0.00045888952      1000000 
  320000    1.0288848  -0.89822721    20.840367 5.5183357e-05 0.00011269799 -0.00022003259 0.00027288467      1000000 
  330000    1.0763355  -0.97022464    20.847986 -2.3645758e-05 -0.00023772954 6.8675726e-05 9.8116542e-05      1000000 
  340000   0.98017672   -1.0236317    20.883815 0.00015908409 7.9223245e-06 0.0002031021 0.00026622786      1000000 
  350000   0.94611423  -0.97365609     20.78074 0.00022780555 9.8217359e-06 0.00023563536 0.00043795956      1000000 
  360000    1.0307014   -1.1235484    20.804849 -0.00014167413 -0.00030102758 -8.0904126e-05 -4.309067e-05      1000000 
  370000   0.98014302   -1.1491951    20.715264 -9.8608922e-05 -5.9390337e-05 -1.7210412e-05 -0.00021922602      1000000 
  380000    1.0283598   -1.1677382     20.65879 0.00051590401 0.00048194947 0.00068308632 0.00038267625      1000000 
  390000    1.0433253   -1.2154057    20.794933 5.2094351e-05 -7.4201421e-07 -1.2939856e-05 0.00016996492      1000000 
  400000    1.0716823   -1.1759641    20.673108 -0.00019756633 -0.00037435613 -1.2787089e-07 -0.000218215      1000000 
  410000    1.0558832    -1.176045    20.782122 -0.00016535019 0.00019019935 -0.00026607888 -0.00042017105      1000000 
  420000   0.97205822   -1.1510127    20.790958 -6.9247387e-05 -0.00030136972 9.4524379e-05 -8.9681842e-07      1000000 
  430000    1.0086231   -1.2214085    20.799514 -4.2050138e-05 -8.9090796e-05 6.2284217e-05 -9.9343834e-05      1000000 
  440000    1.0287339   -1.1852031    20.782952 -0.00040551005 -0.00056890392 4.2754195e-05 -0.00069038044      1000000 
  450000   0.97493904   -1.1716524    20.817294 0.00030841715 0.00036237392 0.00026596948 0.00029690805      1000000 
  460000    1.0993504   -1.1812622    20.811332  0.000447894 0.00061718714 0.00045725345 0.00026924142      1000000 
  470000    1.0773038   -1.1415938    20.767782 -0.00010384531 -0.00014705896 -8.8737786e-05 -7.5739176e-05      1000000 
  480000    1.0244323   -1.1651779    20.813964 0.00020655663 0.00020384252 0.00019986656 0.0002159608      1000000 
  490000    1.0513591   -1.1706266    20.798663 4.7772659e-05 4.0152835e-05 -0.00012177667 0.00022494182      1000000 
  500000    1.0367095   -1.1954342    20.715459 8.4771375e-05 0.00013991164 -0.00010675209 0.00022115457      1000000 
  510000       1.0007   -1.1397171    20.705845 0.00028195983 0.00016918824 0.00059824349 7.8447753e-05      1000000 
  520000    1.0114566   -1.2078354    20.803186 -0.00013703407 -0.0003139187 2.7414428e-05 -0.00012459794      1000000 
  530000    1.0014118   -1.2135524    20.715366 -4.147206e-05 0.00012929571 8.7552519e-05 -0.00034126441      1000000 
  540000   0.97684075    -1.200157    20.852972 -6.3707216e-05 0.0001695116 -0.00036420397 3.5707174e-06      1000000 
  550000   0.93697896   -1.2004144     20.84104 8.7187242e-05 -0.00016064972 0.00035011744 7.2094011e-05      1000000 
  560000    1.0633273   -1.1973506    20.831993 0.00032364806 -6.9348478e-06 0.0001837853 0.00079409373      1000000 
  570000   0.97150311   -1.1306608    20.801363 8.1516217e-05 0.0003239948 9.1814962e-05 -0.00017126111      1000000 
  580000   0.99546693   -1.1648672     20.80209 6.1076832e-05 -0.00012589154 0.00029682731 1.2294728e-05      1000000 
  590000    1.0350329   -1.2158254      20.7286 0.00019558366 0.00032304247 7.0468891e-05 0.00019323961      1000000 
  600000    1.0113521   -1.1898868    20.780193 -4.0903593e-05 -8.217123e-05 0.00010085284 -0.00014139239      1000000 
  610000   0.97764737     -1.11134     20.71649 -0.00019159928 -0.00043924555 -0.00024093368 0.0001053814      1000000 
  620000   0.99382595   -1.2305925    20.728223 0.00035342506 0.0001724579 0.00062954162 0.00025827566      1000000 
  630000   0.98589106   -1.1628858    20.833001 1.6863332e-05 2.3433274e-05 8.5897956e-05 -5.8741233e-05      1000000 
  640000    1.0223579   -1.2013808    20.690441 -5.6147158e-05 7.549662e-05 -0.0002939163 4.9978203e-05      1000000 
  650000    1.0458457    -1.108724    20.751972 -9.8215538e-06 5.9609446e-05 0.00023387926 -0.00032295337      1000000 
  660000    1.0087288   -1.1965581    20.763604 0.0001123485 0.00022392601 0.00018617696 -7.3057464e-05      1000000 
  670000    1.0430983   -1.1885733    20.762204 0.00012797901 0.00027713763 6.0643573e-05 4.6155828e-05      1000000 
  680000    0.9993581   -1.1045323    20.898194 3.3397854e-05 -0.00033540418 0.00048233429 -4.6736556e-05      1000000 
  690000    1.0637066   -1.1614508    20.705621 0.00030747269 6.8941161e-05 0.00044216709 0.00041130981      1000000 
  700000    1.0089988   -1.0805814    20.706915 0.00017292927 0.00021834616 0.00015139735 0.0001490443      1000000 
  710000    1.0221236    -1.106961    20.700432 0.00028593204 3.9336241e-05 0.0002568197 0.00056164017      1000000 
  720000   0.99230774    -1.157489    20.690525 0.00042631974 0.00026027361 0.00052769262 0.00049099301      1000000 
  730000    1.0403263   -1.1357397    20.816265 0.00010289401 1.9411091e-05 0.00025717214 3.2098792e-05      1000000 
  740000     1.059799   -1.1649703    20.789818 -0.00022158136 -0.00021835172 -0.00022715932 -0.00021923303      1000000 
  750000   0.95513092   -1.1897068     20.73847 -8.7341598e-05 -0.00017463826 -0.00033672668 0.00024934015      1000000 
  760000    1.0148454   -1.1788473    20.698009 5.2530049e-05 -1.9698377e-05 -0.00011792436 0.00029521288      1000000 
  770000   0.93698782   -1.2043984    20.797311 8.0837261e-05 0.00021759615 0.00035282736 -0.00032791173      1000000 
  780000   0.95727866    -1.185676    20.684171 0.00031530407 2.1776056e-05 0.00016704642 0.00075708972      1000000 
  790000     1.011887   -1.1493715    20.664554 -0.00011465416 -2.2234966e-05 -0.00011589849 -0.00020582902      1000000 
  800000    1.0221713   -1.1048712    20.831629 5.4609451e-05 0.00020650072 -0.00027660576 0.0002339334      1000000 
  810000    1.0002599   -1.1910674    20.794938 -7.6198308e-05 -0.00013028355 -1.3724299e-06 -9.6938947e-05      1000000 
  820000   0.98017554   -1.1853225    20.737708 -0.00019116107 -0.00027851426 -0.00042515477 0.00013018582      1000000 
  830000   0.96069253   -1.2050624    20.686769 -7.7239855e-05 1.349938e-06 -0.00012705993 -0.00010600957      1000000 
  840000    0.9487169   -1.1935624     20.79354 6.2909491e-05 8.8420284e-05 0.0002650316 -0.00016472341      1000000 
  850000    1.0084469   -1.1532056    20.719448 -9.1265141e-05 -0.00014368103 -0.00016159428 3.1479896e-05      1000000 
  860000    1.0032396   -1.1872988    20.870618 -0.00017909009 -0.0002641486 -0.00023377977 -3.9341888e-05      1000000 
  870000    0.9385043   -1.1887614    20.831933 4.9508411e-05 -0.00022599309 0.00016212002 0.0002123983      1000000 
  880000    1.0212578   -1.1670773    20.807766 8.1460292e-05 0.00012336669 0.00029298647 -0.00017197228      1000000 
  890000    1.0522985   -1.1296281    20.795939 3.544944e-05 3.2807059e-05 -4.9227937e-05 0.0001227692      1000000 
  900000    0.9710086   -1.2113483    20.767544 0.00010199012 6.0078283e-05 0.00011882359 0.0001270685      1000000 
  910000    1.0539628   -1.1764283    20.688203 -0.00014982664 -5.9100381e-05 -2.664448e-05 -0.00036373507      1000000 
  920000    1.0782677   -1.2333727      20.7782 -4.5239023e-05 -7.1225489e-05 -0.00024578488 0.0001812933      1000000 
  930000    1.0270478   -1.1529098    20.660598 0.00026562328 0.00015176719 0.00059505732 5.0045323e-05      1000000 
  940000    1.0407187   -1.1734444    20.821079 0.00019397105 6.9218146e-05 0.00032372951 0.00018896548      1000000 
  950000     1.026773   -1.1671515    20.775033 4.2003314e-05 -2.5245234e-05 -0.00015448828 0.00030574346      1000000 
  960000    1.0123444   -1.1631489    20.767236 0.00011630754 0.00030309766 -4.0540452e-05 8.6365408e-05      1000000 
  970000    1.0698746   -1.1637572    20.812964 -0.00015009678 -1.1358788e-05 -2.79242e-05 -0.00041100734      1000000 
  980000   0.99013133   -1.1950507     20.77824 7.5537499e-05 0.00035384623 -0.00020738906 8.015532e-05      1000000 
  990000   0.92049492   -1.1674249    20.745563 0.00012387893 0.00020108033 0.00022255312 -5.1996663e-05      1000000 
 1000000   0.98560755   -1.1683853    20.755921 0.00017702142 7.5447167e-05 1.2101994e-05 0.0004435151      1000000 
 1001000    1.0579959   -1.2388052    20.751502 0.00013697917 0.00025565359 9.5019348e-05 6.0264561e-05      1000000 
Loop time of 59.6451 on 1 procs for 1000000 steps with 400 atoms

Performance: 14485685.997 tau/day, 16765.840 timesteps/s
99.8% CPU use with 1 MPI tasks x no OpenMP threads

MPI task timing breakdown:
Section |  min time  |  avg time  |  max time  |%varavg| %total
---------------------------------------------------------------
Pair    | 10.621     | 10.621     | 10.621     |   0.0 | 17.81
Bond    | 18.594     | 18.594     | 18.594     |   0.0 | 31.17
Neigh   | 6.5301     | 6.5301     | 6.5301     |   0.0 | 10.95
Comm    | 0.48658    | 0.48658    | 0.48658    |   0.0 |  0.82
Output  | 0.4542     | 0.4542     | 0.4542     |   0.0 |  0.76
Modify  | 21.385     | 21.385     | 21.385     |   0.0 | 35.85
Other   |            | 1.574      |            |       |  2.64

Nlocal:    400 ave 400 max 400 min
Histogram: 1 0 0 0 0 0 0 0 0 0
Nghost:    0 ave 0 max 0 min
Histogram: 1 0 0 0 0 0 0 0 0 0
Neighs:    1989 ave 1989 max 1989 min
Histogram: 1 0 0 0 0 0 0 0 0 0

Total # of neighbors = 1989
Ave neighs/atom = 4.9725
Ave special neighs/atom = 1.99
Neighbor list builds = 23073
Dangerous builds = 0

include pair.unzipping
 pair_coeff            1           1   1.5000000000000000        1.0000000000000000        2.5000000000000000
 pair_coeff            2           2   1.5000000000000000        1.0000000000000000        2.5000000000000000
 pair_coeff            3           3   1.5000000000000000        1.0000000000000000        2.5000000000000000
 pair_coeff            4           4   1.5000000000000000        1.0000000000000000        2.5000000000000000
 pair_coeff            5           5   1.5000000000000000        1.0000000000000000        2.5000000000000000
 pair_coeff            6           6   1.5000000000000000        1.0000000000000000        2.5000000000000000
 pair_coeff            7           7   1.5000000000000000        1.0000000000000000        2.5000000000000000
 pair_coeff            8           8   1.5000000000000000        1.0000000000000000        2.5000000000000000
 pair_coeff            9           9   1.5000000000000000        1.0000000000000000        2.5000000000000000
 pair_coeff           10          10   1.5000000000000000        1.0000000000000000        2.5000000000000000
 pair_coeff           11          11   1.5000000000000000        1.0000000000000000        2.5000000000000000
 pair_coeff           12          12   1.5000000000000000        1.0000000000000000        2.5000000000000000
 pair_coeff           13          13   1.5000000000000000        1.0000000000000000        2.5000000000000000
 pair_coeff           14          14   1.5000000000000000        1.0000000000000000        2.5000000000000000
 pair_coeff           15          15   1.5000000000000000        1.0000000000000000        2.5000000000000000
 pair_coeff           16          16   1.5000000000000000        1.0000000000000000        2.5000000000000000
 pair_coeff           17          17   1.5000000000000000        1.0000000000000000        2.5000000000000000
 pair_coeff           18          18   1.5000000000000000        1.0000000000000000        2.5000000000000000
 pair_coeff           19          19   1.5000000000000000        1.0000000000000000        2.5000000000000000
 pair_coeff           20          20   1.5000000000000000        1.0000000000000000        2.5000000000000000
 pair_coeff           21          21   1.5000000000000000        1.0000000000000000        2.5000000000000000
 pair_coeff           22          22   1.5000000000000000        1.0000000000000000        2.5000000000000000
 pair_coeff           23          23   1.5000000000000000        1.0000000000000000        2.5000000000000000
 pair_coeff           24          24   1.5000000000000000        1.0000000000000000        2.5000000000000000
 pair_coeff           25          25   1.5000000000000000        1.0000000000000000        2.5000000000000000
 pair_coeff           26          26   1.5000000000000000        1.0000000000000000        2.5000000000000000
 pair_coeff           27          27   1.5000000000000000        1.0000000000000000        2.5000000000000000
 pair_coeff           28          28   1.5000000000000000        1.0000000000000000        2.5000000000000000
 pair_coeff           29          29   1.5000000000000000        1.0000000000000000        2.5000000000000000
 pair_coeff           30          30   1.5000000000000000        1.0000000000000000        2.5000000000000000
 pair_coeff           31          31   1.5000000000000000        1.0000000000000000        2.5000000000000000
 pair_coeff           32          32   1.5000000000000000        1.0000000000000000        2.5000000000000000
 pair_coeff           33          33   1.5000000000000000        1.0000000000000000        2.5000000000000000
 pair_coeff           34          34   1.5000000000000000        1.0000000000000000        2.5000000000000000
 pair_coeff           35          35   1.5000000000000000        1.0000000000000000        2.5000000000000000
 pair_coeff           36          36   1.5000000000000000        1.0000000000000000        2.5000000000000000
 pair_coeff           37          37   1.5000000000000000        1.0000000000000000        2.5000000000000000
 pair_coeff           38          38   1.5000000000000000        1.0000000000000000        2.5000000000000000
 pair_coeff           39          39   1.5000000000000000        1.0000000000000000        2.5000000000000000
 pair_coeff           40          40   1.5000000000000000        1.0000000000000000        2.5000000000000000
 pair_coeff           41          41   1.5000000000000000        1.0000000000000000        2.5000000000000000
 pair_coeff           42          42   1.5000000000000000        1.0000000000000000        2.5000000000000000
 pair_coeff           43          43   1.5000000000000000        1.0000000000000000        2.5000000000000000
 pair_coeff           44          44   1.5000000000000000        1.0000000000000000        2.5000000000000000
 pair_coeff           45          45   1.5000000000000000        1.0000000000000000        2.5000000000000000
 pair_coeff           46          46   1.5000000000000000        1.0000000000000000        2.5000000000000000
 pair_coeff           47          47   1.5000000000000000        1.0000000000000000        2.5000000000000000
 pair_coeff           48          48   1.5000000000000000        1.0000000000000000        2.5000000000000000
 pair_coeff           49          49   1.5000000000000000        1.0000000000000000        2.5000000000000000
 pair_coeff           50          50   1.5000000000000000        1.0000000000000000        2.5000000000000000
 pair_coeff           51          51   1.5000000000000000        1.0000000000000000        2.5000000000000000
 pair_coeff           52          52   1.5000000000000000        1.0000000000000000        2.5000000000000000
 pair_coeff           53          53   1.5000000000000000        1.0000000000000000        2.5000000000000000
 pair_coeff           54          54   1.5000000000000000        1.0000000000000000        2.5000000000000000
 pair_coeff           55          55   1.5000000000000000        1.0000000000000000        2.5000000000000000
 pair_coeff           56          56   1.5000000000000000        1.0000000000000000        2.5000000000000000
 pair_coeff           57          57   1.5000000000000000        1.0000000000000000        2.5000000000000000
 pair_coeff           58          58   1.5000000000000000        1.0000000000000000        2.5000000000000000
 pair_coeff           59          59   1.5000000000000000        1.0000000000000000        2.5000000000000000
 pair_coeff           60          60   1.5000000000000000        1.0000000000000000        2.5000000000000000
 pair_coeff           61          61   1.5000000000000000        1.0000000000000000        2.5000000000000000
 pair_coeff           62          62   1.5000000000000000        1.0000000000000000        2.5000000000000000
 pair_coeff           63          63   1.5000000000000000        1.0000000000000000        2.5000000000000000
 pair_coeff           64          64   1.5000000000000000        1.0000000000000000        2.5000000000000000
 pair_coeff           65          65   1.5000000000000000        1.0000000000000000        2.5000000000000000
 pair_coeff           66          66   1.5000000000000000        1.0000000000000000        2.5000000000000000
 pair_coeff           67          67   1.5000000000000000        1.0000000000000000        2.5000000000000000
 pair_coeff           68          68   1.5000000000000000        1.0000000000000000        2.5000000000000000
 pair_coeff           69          69   1.5000000000000000        1.0000000000000000        2.5000000000000000
 pair_coeff           70          70   1.5000000000000000        1.0000000000000000        2.5000000000000000
 pair_coeff           71          71   1.5000000000000000        1.0000000000000000        2.5000000000000000
 pair_coeff           72          72   1.5000000000000000        1.0000000000000000        2.5000000000000000
 pair_coeff           73          73   1.5000000000000000        1.0000000000000000        2.5000000000000000
 pair_coeff           74          74   1.5000000000000000        1.0000000000000000        2.5000000000000000
 pair_coeff           75          75   1.5000000000000000        1.0000000000000000        2.5000000000000000
 pair_coeff           76          76   1.5000000000000000        1.0000000000000000        2.5000000000000000
 pair_coeff           77          77   1.5000000000000000        1.0000000000000000        2.5000000000000000
 pair_coeff           78          78   1.5000000000000000        1.0000000000000000        2.5000000000000000
 pair_coeff           79          79   1.5000000000000000        1.0000000000000000        2.5000000000000000
 pair_coeff           80          80   1.5000000000000000        1.0000000000000000        2.5000000000000000
 pair_coeff           81          81   1.5000000000000000        1.0000000000000000        2.5000000000000000
 pair_coeff           82          82   1.5000000000000000        1.0000000000000000        2.5000000000000000
 pair_coeff           83          83   1.5000000000000000        1.0000000000000000        2.5000000000000000
 pair_coeff           84          84   1.5000000000000000        1.0000000000000000        2.5000000000000000
 pair_coeff           85          85   1.5000000000000000        1.0000000000000000        2.5000000000000000
 pair_coeff           86          86   1.5000000000000000        1.0000000000000000        2.5000000000000000
 pair_coeff           87          87   1.5000000000000000        1.0000000000000000        2.5000000000000000
 pair_coeff           88          88   1.5000000000000000        1.0000000000000000        2.5000000000000000
 pair_coeff           89          89   1.5000000000000000        1.0000000000000000        2.5000000000000000
 pair_coeff           90          90   1.5000000000000000        1.0000000000000000        2.5000000000000000
 pair_coeff           91          91   1.5000000000000000        1.0000000000000000        2.5000000000000000
 pair_coeff           92          92   1.5000000000000000        1.0000000000000000        2.5000000000000000
 pair_coeff           93          93   1.5000000000000000        1.0000000000000000        2.5000000000000000
 pair_coeff           94          94   1.5000000000000000        1.0000000000000000        2.5000000000000000
 pair_coeff           95          95   1.5000000000000000        1.0000000000000000        2.5000000000000000
 pair_coeff           96          96   1.5000000000000000        1.0000000000000000        2.5000000000000000
 pair_coeff           97          97   1.5000000000000000        1.0000000000000000        2.5000000000000000
 pair_coeff           98          98   1.5000000000000000        1.0000000000000000        2.5000000000000000
 pair_coeff           99          99   1.5000000000000000        1.0000000000000000        2.5000000000000000
 pair_coeff          100         100   1.5000000000000000        1.0000000000000000        2.5000000000000000
 pair_coeff          101         101   1.5000000000000000        1.0000000000000000        2.5000000000000000
 pair_coeff          102         102   1.5000000000000000        1.0000000000000000        2.5000000000000000
 pair_coeff          103         103   1.5000000000000000        1.0000000000000000        2.5000000000000000
 pair_coeff          104         104   1.5000000000000000        1.0000000000000000        2.5000000000000000
 pair_coeff          105         105   1.5000000000000000        1.0000000000000000        2.5000000000000000
 pair_coeff          106         106   1.5000000000000000        1.0000000000000000        2.5000000000000000
 pair_coeff          107         107   1.5000000000000000        1.0000000000000000        2.5000000000000000
 pair_coeff          108         108   1.5000000000000000        1.0000000000000000        2.5000000000000000
 pair_coeff          109         109   1.5000000000000000        1.0000000000000000        2.5000000000000000
 pair_coeff          110         110   1.5000000000000000        1.0000000000000000        2.5000000000000000
 pair_coeff          111         111   1.5000000000000000        1.0000000000000000        2.5000000000000000
 pair_coeff          112         112   1.5000000000000000        1.0000000000000000        2.5000000000000000
 pair_coeff          113         113   1.5000000000000000        1.0000000000000000        2.5000000000000000
 pair_coeff          114         114   1.5000000000000000        1.0000000000000000        2.5000000000000000
 pair_coeff          115         115   1.5000000000000000        1.0000000000000000        2.5000000000000000
 pair_coeff          116         116   1.5000000000000000        1.0000000000000000        2.5000000000000000
 pair_coeff          117         117   1.5000000000000000        1.0000000000000000        2.5000000000000000
 pair_coeff          118         118   1.5000000000000000        1.0000000000000000        2.5000000000000000
 pair_coeff          119         119   1.5000000000000000        1.0000000000000000        2.5000000000000000
 pair_coeff          120         120   1.5000000000000000        1.0000000000000000        2.5000000000000000
 pair_coeff          121         121   1.5000000000000000        1.0000000000000000        2.5000000000000000
 pair_coeff          122         122   1.5000000000000000        1.0000000000000000        2.5000000000000000
 pair_coeff          123         123   1.5000000000000000        1.0000000000000000        2.5000000000000000
 pair_coeff          124         124   1.5000000000000000        1.0000000000000000        2.5000000000000000
 pair_coeff          125         125   1.5000000000000000        1.0000000000000000        2.5000000000000000
 pair_coeff          126         126   1.5000000000000000        1.0000000000000000        2.5000000000000000
 pair_coeff          127         127   1.5000000000000000        1.0000000000000000        2.5000000000000000
 pair_coeff          128         128   1.5000000000000000        1.0000000000000000        2.5000000000000000
 pair_coeff          129         129   1.5000000000000000        1.0000000000000000        2.5000000000000000
 pair_coeff          130         130   1.5000000000000000        1.0000000000000000        2.5000000000000000
 pair_coeff          131         131   1.5000000000000000        1.0000000000000000        2.5000000000000000
 pair_coeff          132         132   1.5000000000000000        1.0000000000000000        2.5000000000000000
 pair_coeff          133         133   1.5000000000000000        1.0000000000000000        2.5000000000000000
 pair_coeff          134         134   1.5000000000000000        1.0000000000000000        2.5000000000000000
 pair_coeff          135         135   1.5000000000000000        1.0000000000000000        2.5000000000000000
 pair_coeff          136         136   1.5000000000000000        1.0000000000000000        2.5000000000000000
 pair_coeff          137         137   1.5000000000000000        1.0000000000000000        2.5000000000000000
 pair_coeff          138         138   1.5000000000000000        1.0000000000000000        2.5000000000000000
 pair_coeff          139         139   1.5000000000000000        1.0000000000000000        2.5000000000000000
 pair_coeff          140         140   1.5000000000000000        1.0000000000000000        2.5000000000000000
 pair_coeff          141         141   1.5000000000000000        1.0000000000000000        2.5000000000000000
 pair_coeff          142         142   1.5000000000000000        1.0000000000000000        2.5000000000000000
 pair_coeff          143         143   1.5000000000000000        1.0000000000000000        2.5000000000000000
 pair_coeff          144         144   1.5000000000000000        1.0000000000000000        2.5000000000000000
 pair_coeff          145         145   1.5000000000000000        1.0000000000000000        2.5000000000000000
 pair_coeff          146         146   1.5000000000000000        1.0000000000000000        2.5000000000000000
 pair_coeff          147         147   1.5000000000000000        1.0000000000000000        2.5000000000000000
 pair_coeff          148         148   1.5000000000000000        1.0000000000000000        2.5000000000000000
 pair_coeff          149         149   1.5000000000000000        1.0000000000000000        2.5000000000000000
 pair_coeff          150         150   1.5000000000000000        1.0000000000000000        2.5000000000000000
 pair_coeff          151         151   1.5000000000000000        1.0000000000000000        2.5000000000000000
 pair_coeff          152         152   1.5000000000000000        1.0000000000000000        2.5000000000000000
 pair_coeff          153         153   1.5000000000000000        1.0000000000000000        2.5000000000000000
 pair_coeff          154         154   1.5000000000000000        1.0000000000000000        2.5000000000000000
 pair_coeff          155         155   1.5000000000000000        1.0000000000000000        2.5000000000000000
 pair_coeff          156         156   1.5000000000000000        1.0000000000000000        2.5000000000000000
 pair_coeff          157         157   1.5000000000000000        1.0000000000000000        2.5000000000000000
 pair_coeff          158         158   1.5000000000000000        1.0000000000000000        2.5000000000000000
 pair_coeff          159         159   1.5000000000000000        1.0000000000000000        2.5000000000000000
 pair_coeff          160         160   1.5000000000000000        1.0000000000000000        2.5000000000000000
 pair_coeff          161         161   1.5000000000000000        1.0000000000000000        2.5000000000000000
 pair_coeff          162         162   1.5000000000000000        1.0000000000000000        2.5000000000000000
 pair_coeff          163         163   1.5000000000000000        1.0000000000000000        2.5000000000000000
 pair_coeff          164         164   1.5000000000000000        1.0000000000000000        2.5000000000000000
 pair_coeff          165         165   1.5000000000000000        1.0000000000000000        2.5000000000000000
 pair_coeff          166         166   1.5000000000000000        1.0000000000000000        2.5000000000000000
 pair_coeff          167         167   1.5000000000000000        1.0000000000000000        2.5000000000000000
 pair_coeff          168         168   1.5000000000000000        1.0000000000000000        2.5000000000000000
 pair_coeff          169         169   1.5000000000000000        1.0000000000000000        2.5000000000000000
 pair_coeff          170         170   1.5000000000000000        1.0000000000000000        2.5000000000000000
 pair_coeff          171         171   1.5000000000000000        1.0000000000000000        2.5000000000000000
 pair_coeff          172         172   1.5000000000000000        1.0000000000000000        2.5000000000000000
 pair_coeff          173         173   1.5000000000000000        1.0000000000000000        2.5000000000000000
 pair_coeff          174         174   1.5000000000000000        1.0000000000000000        2.5000000000000000
 pair_coeff          175         175   1.5000000000000000        1.0000000000000000        2.5000000000000000
 pair_coeff          176         176   1.5000000000000000        1.0000000000000000        2.5000000000000000
 pair_coeff          177         177   1.5000000000000000        1.0000000000000000        2.5000000000000000
 pair_coeff          178         178   1.5000000000000000        1.0000000000000000        2.5000000000000000
 pair_coeff          179         179   1.5000000000000000        1.0000000000000000        2.5000000000000000
 pair_coeff          180         180   1.5000000000000000        1.0000000000000000        2.5000000000000000
 pair_coeff          181         181   1.5000000000000000        1.0000000000000000        2.5000000000000000
 pair_coeff          182         182   1.5000000000000000        1.0000000000000000        2.5000000000000000
 pair_coeff          183         183   1.5000000000000000        1.0000000000000000        2.5000000000000000
 pair_coeff          184         184   1.5000000000000000        1.0000000000000000        2.5000000000000000
 pair_coeff          185         185   1.5000000000000000        1.0000000000000000        2.5000000000000000
 pair_coeff          186         186   1.5000000000000000        1.0000000000000000        2.5000000000000000
 pair_coeff          187         187   1.5000000000000000        1.0000000000000000        2.5000000000000000
 pair_coeff          188         188   1.5000000000000000        1.0000000000000000        2.5000000000000000
 pair_coeff          189         189   1.5000000000000000        1.0000000000000000        2.5000000000000000
 pair_coeff          190         190   1.5000000000000000        1.0000000000000000        2.5000000000000000
 pair_coeff          191         191   1.5000000000000000        1.0000000000000000        2.5000000000000000
 pair_coeff          192         192   1.5000000000000000        1.0000000000000000        2.5000000000000000
 pair_coeff          193         193   1.5000000000000000        1.0000000000000000        2.5000000000000000
 pair_coeff          194         194   1.5000000000000000        1.0000000000000000        2.5000000000000000
 pair_coeff          195         195   1.5000000000000000        1.0000000000000000        2.5000000000000000
 pair_coeff          196         196   1.5000000000000000        1.0000000000000000        2.5000000000000000
 pair_coeff          197         197   1.5000000000000000        1.0000000000000000        2.5000000000000000
 pair_coeff          198         198   1.5000000000000000        1.0000000000000000        2.5000000000000000
 pair_coeff          199         199   1.5000000000000000        1.0000000000000000        2.5000000000000000
 pair_coeff          200         200   1.5000000000000000        1.0000000000000000        2.5000000000000000

run 3000000
Per MPI rank memory allocation (min/avg/max) = 6.723 | 6.723 | 6.723 Mbytes
Step Temp E_pair E_mol Press Pxx Pyy Pzz Volume 
 1001000    1.0579959  -0.61253311    20.751502 0.00020269787 0.00034167215 0.00016231586 0.0001041056      1000000 
 1010000    1.0424565   -0.4172377    20.793442 -1.4990864e-05 -0.00034366553 0.00030719152 -8.4985823e-06      1000000 
 1020000    1.0025029  -0.39618187     20.86524 0.00019054194 0.00026439267 0.00034109503 -3.3861868e-05      1000000 
 1030000   0.98174948  -0.34771984     20.94407 0.00013525024 0.00016093836 0.00011625298 0.0001285594      1000000 
 1040000    1.0304989  -0.29638164    20.890686 5.8072124e-05 -0.00011089898 2.7141905e-05 0.00025797345      1000000 
 1050000    1.0228704  -0.28006077     20.88306 0.00017728928 0.00026586192 -0.00018425801 0.00045026393      1000000 
 1060000   0.97542512  -0.26304148    20.909347 6.4093584e-05 0.00048687949 0.00011425855 -0.00040885729      1000000 
 1070000   0.95629557  -0.21030958    20.960873 -0.00014118624 -4.0386101e-05 -0.00035895329 -2.4219341e-05      1000000 
 1080000     1.066433  -0.21848235    20.883924 0.00021363996 0.00016257192 0.00017793106 0.0003004169      1000000 
 1090000    1.0586036  -0.15728029    20.958833 0.00017170149 0.00036538187 -0.00027054092 0.00042026353      1000000 
 1100000    0.9885162  -0.20359542    20.976596 -0.00026827182 -0.00019309298 -5.242389e-05 -0.00055929859      1000000 
 1110000    1.0038982  -0.21725676    20.845849 -7.0333823e-05 -0.00011684928 0.00015313599 -0.00024728819      1000000 
 1120000    0.9946697  -0.19261921    20.806267 0.00016004548 -5.0116578e-05 0.00026496387 0.00026528913      1000000 
 1130000   0.98686817  -0.16578099    20.932786 0.00028496962 -9.4858084e-05 0.00043521299 0.00051455395      1000000 
 1140000    1.0077685   -0.1826356    20.960288 0.00037916722 0.0002140686 0.00039810809 0.00052532496      1000000 
 1150000    1.0397895 -0.072314183     20.93986 -0.00025675159 -0.00028790177 -0.00012783252 -0.00035452047      1000000 
 1160000    1.0477412  -0.10823645    20.873529 0.00020376052 8.2591137e-05 0.00033598521 0.00019270521      1000000 
 1170000   0.98023685  -0.15714538    20.936894 -0.00016186513  3.82919e-05 -7.1291664e-05 -0.00045259564      1000000 
 1180000    1.0409899  -0.11043587    20.949111 0.00013117394 0.00036339205 0.00012751554 -9.7385779e-05      1000000 
 1190000   0.95401882   -0.1497945    20.958173 -2.6728117e-05 -7.2512084e-05 -0.00012830261 0.00012063035      1000000 
 1200000    1.0426802  -0.21850393      20.8169 -4.8600459e-05 -0.00021963853 7.1274691e-05 2.5624607e-06      1000000 
 1210000    1.0167225  -0.18246548    20.992821 -8.3622964e-05 -0.00022109613 -2.335699e-05 -6.4157722e-06      1000000 
 1220000    1.0695833  -0.17120394    20.949125 -0.00020515536 -0.00013578936 -0.00011608301 -0.00036359369      1000000 
 1230000   0.93223568  -0.19920415    20.856994 -9.9680389e-06 -0.00025211522 0.0002123111 9.9000057e-06      1000000 
 1240000    1.0251547    -0.177168    20.871005 6.775569e-06 -0.00012095378 0.00013557209 5.708395e-06      1000000 
 1250000    1.0139406   -0.2300685    20.921463 -0.00010744614 -7.5331861e-05 -0.00048904024 0.00024203369      1000000 
 1260000    0.9722915  -0.20080492    20.900087 6.2719848e-05 0.00010552654 0.00029337179 -0.00021073879      1000000 
 1270000    1.0256941  -0.20126001    20.943961 -0.00032937614 -0.0002983887 -0.00040012223 -0.00028961747      1000000 
 1280000    1.0434239  -0.19622964    20.820061 4.6562285e-05 4.3893784e-05 0.00030294298 -0.00020714991      1000000 
 1290000   0.94413319   -0.1860763    20.952157 -0.00015508856 -0.00036709514 0.00011055639 -0.00020872693      1000000 
 1300000    1.0619275  -0.25318628     20.84724 0.00028906836 0.00026866784 0.00040370881 0.00019482841      1000000 
 1310000    1.0462729  -0.15979948    20.852487 3.9231559e-06 0.00019958335 -0.00015318225 -3.4631635e-05      1000000 
 1320000   0.99749921  -0.15046546    20.822178 0.0002594962 -4.957878e-05 0.00041170915 0.00041635821      1000000 
 1330000    1.0100429   -0.2048856    21.035078 -0.00017713217 -0.00032485197 -8.3478595e-05 -0.00012306595      1000000 
 1340000   0.98089648   -0.2088308    20.798785 -0.00018816325 -0.00037915799 2.0362407e-05 -0.00020569417      1000000 
 1350000   0.94932392   -0.2352427    20.997124 -0.00027350502 -0.00025133501 -0.00025081645 -0.0003183636      1000000 
 1360000    1.0864184  -0.26449377    20.950762 0.00023976631 0.0001990511 0.00017327844 0.00034696939      1000000 
 1370000    1.0207055  -0.27124607    20.860939 0.00025870355 0.00037394817 0.00022565047 0.00017651199      1000000 
 1380000    1.0489182  -0.26341297     20.95488 -0.00017021213 -5.9869254e-05 -0.00038493419 -6.5832962e-05      1000000 
 1390000   0.96048596  -0.26753119    20.860545 -0.00022223046 -0.00019230161 0.00022397572 -0.00069836551      1000000 
 1400000   0.97615149  -0.28113506    20.865841 -0.00018211384 -0.00032659331 -0.00017956017 -4.0188035e-05      1000000 
 1410000    1.0223483  -0.22359066    20.831094 0.00065516425 0.00041541017 0.00082833384 0.00072174873      1000000 
 1420000   0.97149456  -0.17998516     20.89759 0.00022438599 0.00015275253 0.00014849278 0.00037191266      1000000 
 1430000    1.0186875  -0.27106189    20.884576 -2.2208173e-05 -3.1006469e-05 -0.00014565877 0.00011004072      1000000 
 1440000    0.9646472  -0.21664429    21.024816 -0.00019683528 -0.00015602525 -0.00057013055 0.00013564997      1000000 
 1450000   0.99766483  -0.22683114    20.845807 0.00022003328 0.00047066749 -5.6317344e-05 0.00024574969      1000000 
 1460000   0.97586044  -0.21079169    20.876733 -0.00019166667 -0.00011383059 -0.00011605481 -0.00034511461      1000000 
 1470000   0.96698006  -0.21730134    21.075686 1.9943805e-05 -9.0708476e-05 0.00032898934 -0.00017844945      1000000 
 1480000     1.016394  -0.22051849    20.947843 0.00061091088 0.00072133383 0.00029837502 0.00081302381      1000000 
 1490000    1.0473285  -0.15269132    20.937498 0.00010975938 -2.1577441e-06 0.00017587545 0.00015556045      1000000 
 1500000    1.0504433 -0.073490088    20.961928 -2.586045e-05 -0.0003008605 5.4075333e-05 0.00016920382      1000000 
 1510000     1.038789 -0.037193675     21.10633 0.00028031701 0.00055717942 0.00026402463 1.9746975e-05      1000000 
 1520000    1.0259106 -0.052304549    21.000972 -0.00018072245 -0.00034050058 -7.6693039e-05 -0.00012497373      1000000 
 1530000   0.93261752 -0.094596457    20.975278 -4.512548e-05 -5.6201608e-05 -0.00020992547 0.00013075064      1000000 
 1540000    1.0776148 -0.036616877    21.023948 9.7744758e-05 0.00034877284 -8.9035998e-05 3.3497433e-05      1000000 
 1550000    1.0064358  -0.02656968    20.989391 -0.00021805084 -0.00018347247 -0.0003244906 -0.00014618947      1000000 
 1560000    1.1120805 -0.027225932    20.918224 -0.00026209891 2.0524309e-05 -0.00051026517 -0.00029655588      1000000 
 1570000    1.0397674 -0.046940971    20.992827 0.00029937955 0.00028665285 0.00021197512 0.00039951067      1000000 
 1580000    1.0133915 -0.0045614586    21.105247 -8.9527244e-05 0.00012213167 -0.00012956666 -0.00026114674      1000000 
 1590000    1.0787983            0    20.983551 -5.8864882e-05 -2.4003428e-05 -0.00015596227 3.3710511e-06      1000000 
 1600000    1.0633285            0    20.982509 0.00034472917 0.00022678844 0.00049145087 0.00031594822      1000000 
 1610000    1.0368927            0    20.951678 0.00041311589  0.000704696 0.00017201243 0.00036263925      1000000 
 1620000   0.98733211            0    21.031696 -6.6913921e-05 2.4231292e-05 -0.00014641056 -7.8562494e-05      1000000 
 1630000   0.99665421 -0.00018387944     20.96905 2.0222302e-05 0.00013773114 -0.00012510713 4.8042896e-05      1000000 
 1640000    1.0804031            0    21.076992 8.0086428e-05 -0.00021472728 3.5832699e-05 0.00041915386      1000000 
 1650000    1.0123395            0    21.121716 -0.00018416023 -0.0002257542 6.2213259e-05 -0.00038893975      1000000 
 1660000    1.1316695 -0.0027512478    21.028367 0.00026934303 0.00054487974 -8.9271134e-06 0.00027207647      1000000 
 1670000   0.99893367 -0.010080813    21.047589 0.00023968629 0.00030190853 0.00023994643 0.00017720392      1000000 
 1680000    1.0341305            0    20.979835 -0.00020553282 -0.00035470399 -0.00019838577 -6.3508713e-05      1000000 
 1690000    1.0436234 -4.1314171e-05    20.951642 -3.103745e-05 -0.00010777393 -0.00027392123 0.00028858282      1000000 
 1700000   0.99920285 -0.031140225    20.938778 -0.00013345742 -0.000400991 -0.00027235617 0.00027297492      1000000 
 1710000    1.0167933 -0.032021428    21.088035 0.00029942104 7.0757532e-05 5.1848912e-05 0.00077565667      1000000 
 1720000    0.9974539 -0.0057615816    20.872812 -0.00024224689 -0.0001137999 -0.00043386449 -0.00017907628      1000000 
 1730000    1.0354223 -0.036706555    20.860275 7.858906e-06 0.00023890854 -0.00011467185 -0.00010065998      1000000 
 1740000    1.0337722 -0.049567767    20.952578 0.00048455156 0.00060531782 0.00073500615 0.00011333072      1000000 
 1750000   0.98321976 -0.054082955    20.846765 8.7692477e-05 -0.00014692675 0.00010006714 0.00030993705      1000000 
 1760000    1.0297906 -0.018726365    20.931824 0.00016222637 0.00039078931 0.00016868877 -7.2798977e-05      1000000 
 1770000   0.97729258 -0.024781246    20.998566 -0.0004430163 -0.00015109654 -0.00051412972 -0.00066382264      1000000 
 1780000     1.079855 -0.034573247    21.063345 7.2437961e-05 -2.6684164e-05 2.757764e-05 0.0002164204      1000000 
 1790000    1.0301287 0.00015242037    20.971291 -9.1814123e-06 -0.00019284229 -8.1364666e-05 0.00024666272      1000000 
 1800000   0.98979868            0    21.045033 0.00019182541 -3.5094675e-05 0.00037232123 0.00023824968      1000000 
 1810000   0.98196695 1.5599619e-05    21.118949 -0.00019010103 -0.00047975047 -0.00012489902 3.4346407e-05      1000000 
 1820000   0.94080174 -0.0034737357    20.976383 0.00010028212 -1.4414137e-06 0.00019214099 0.00011014679      1000000 
 1830000   0.99362483 -0.00018783273    21.038358 0.00037239894 0.00075180649 0.00041210065 -4.6710329e-05      1000000 
 1840000     1.050902 -0.017490751    21.050173 -0.00013305165 -6.5456938e-05 -0.00014141281 -0.0001922852      1000000 
 1850000   0.97090333            0    20.957361 -0.00013885208 -0.00037230565 -2.0895384e-05 -2.3355215e-05      1000000 
 1860000   0.98229437 -0.0012537722     20.93781 1.7836705e-05 -0.00028357805 0.00020373424 0.00013335393      1000000 
 1870000   0.99763025            0    21.048191 -0.0002124185 -0.00055611999 -2.6223698e-05 -5.491182e-05      1000000 
 1880000    1.0473752 3.9538971e-05    20.897753 -6.9082657e-05 -8.8697354e-06 -0.0001376679 -6.0710336e-05      1000000 
 1890000   0.97304358 -0.0043726452    21.036823 -0.00026334338 -0.00023506219 -0.00026652064 -0.00028844732      1000000 
 1900000   0.98284318 0.00055401134     20.91843 0.00028235199 0.00051241328 -5.4519531e-05 0.00038916221      1000000 
 1910000    1.0101024  -0.02150611    20.977948 0.00011488999 0.00026092601 -0.00013503206 0.00021877602      1000000 
 1920000   0.91014173 -0.0029764123    21.011809 0.00020706825 0.00059595791 -5.3545047e-05 7.8791893e-05      1000000 
 1930000    1.0256767 -0.0090287837     20.97988 2.9826068e-05 0.00012378387 -0.00030082762 0.00026652195      1000000 
 1940000    1.0125814 -0.00036078395    21.169945 -0.00020843213 2.3795037e-05 -0.00057019071 -7.8900733e-05      1000000 
 1950000   0.99365947 -0.031501109    20.895639 6.9690617e-05 -0.00015620526 0.00017384107 0.00019143603      1000000 
 1960000    1.0498767 -0.046069157    20.960811 0.00031444997 0.00034883427 -0.00018319414 0.00077770979      1000000 
 1970000    1.0575909 -0.041502717    21.070475 -5.1113565e-05 -8.731033e-05 -0.00029607541 0.00023004505      1000000 
 1980000    1.0412106 -0.047469971    20.913759 1.9803244e-05 -8.9579871e-05 -0.00028214804 0.00043113764      1000000 
 1990000   0.96646801 -0.031003036    21.068025 -0.00036732003 -0.00046901959 -0.00056742651 -6.5513984e-05      1000000 
 2000000   0.97976181 -0.016874454    20.992719 -0.00010870822 -0.00024801347 -4.4134135e-05 -3.3977063e-05      1000000 
 2010000   0.99230346 -0.025095357    20.954591 0.00033720171 0.0004776366 0.0003964411 0.00013752742      1000000 
 2020000      1.03952 -0.0043753804    21.103043 0.0001957216 7.0825968e-05 0.00031716321 0.00019917563      1000000 
 2030000    1.0019612 -0.0062023244    20.913809 1.5887722e-05 7.5860148e-05 -0.0001252025 9.7005513e-05      1000000 
 2040000   0.98036181 -0.047474042    21.008902 9.1973093e-05 0.00022316879 -0.00012097221 0.0001737227      1000000 
 2050000   0.94959384 -0.025246254    20.984856 0.00013757213 0.00053495888 0.00010588499 -0.00022812747      1000000 
 2060000    1.0724505 -0.068408441    20.981252 0.00013270379 0.00010309597 0.00020411207 9.0903324e-05      1000000 
 2070000    1.0296642  -0.03376129    21.054634 0.00017058416 0.00016969982 0.00014405785 0.00019799482      1000000 
 2080000   0.99044505  -0.04485978    20.923235 -4.663467e-05 -5.711558e-05 -0.00024100225 0.00015821382      1000000 
 2090000   0.91386824 -0.060448418    20.940394 0.00021166043 0.00023898947 0.00032072387 7.5267941e-05      1000000 
 2100000    1.0670559 -0.050523346    20.909617 0.00022316399 3.9980181e-05 6.2181723e-05 0.00056733007      1000000 
 2110000   0.96779058 -0.047083354    20.930259 2.519077e-05 9.2040197e-05 -1.0551219e-05 -5.9166661e-06      1000000 
 2120000    1.0771963 -0.043001621    20.965642 0.00014088373 0.00024069938 0.0001652539 1.6697918e-05      1000000 
 2130000   0.98720322 -0.031955762    20.843344 0.00025622767 0.00026074101 0.00018302547 0.00032491654      1000000 
 2140000    1.0322302 -0.056622847    20.907692 5.1967441e-05 -0.00014956058 0.00046118123 -0.00015571832      1000000 
 2150000    1.0236231 -0.064100523    20.907739 0.00018152829 0.00010038806 5.2217963e-05 0.00039197886      1000000 
 2160000     1.034146 -0.045292825     20.95457 0.00035541419 0.00034345969 0.00069189965 3.0883219e-05      1000000 
 2170000    1.0170041 -0.092928077    20.960195 2.6741219e-05 -0.00012238888 0.00014298088 5.9631655e-05      1000000 
 2180000     1.005477  -0.10553656    20.985226 0.00044108205 8.8529328e-05 0.00039891822 0.00083579858      1000000 
 2190000   0.96358869  -0.09216171    21.084893 -0.00016534894 -6.8608028e-05 -7.05386e-05 -0.00035690018      1000000 
 2200000    1.0387834 -0.045785552    21.059361 2.1694474e-05 0.00011646193 7.7165584e-05 -0.0001285441      1000000 
 2210000   0.99963846 -0.050987178    20.891254 3.2790114e-05 -0.00017994888 0.00017531765 0.00010300157      1000000 
 2220000   0.94726517 -0.063426643    21.079852 0.00024890215 0.00038720327 0.00013906465 0.00022043852      1000000 
 2230000    1.0092794 -0.057224138    20.938205 2.2163592e-05 1.6932146e-05 -1.5282608e-05 6.4841239e-05      1000000 
 2240000    1.0283551 -0.061919312    21.042451 -0.00023102811 -0.00025240858 -0.00019410119 -0.00024657458      1000000 
 2250000    1.0183272 -0.047614931    21.007319 4.4995438e-05 0.0001552059 -1.8810411e-05 -1.4091719e-06      1000000 
 2260000   0.97240115 -0.077759645     20.97248 -7.398235e-05 -0.00012136506 4.9367211e-05 -0.0001499492      1000000 
 2270000   0.97716413 -0.090692662    21.079804 -1.9515061e-05 -7.5503962e-06 0.00010180424 -0.00015279903      1000000 
 2280000    1.0033083 -0.055567222    20.905831 6.692598e-06 -0.00011295453 1.8329543e-05 0.00011470278      1000000 
 2290000   0.97721604  -0.10516728    20.959648 -0.0001474099 -0.00026112206 1.6495949e-05 -0.00019760359      1000000 
 2300000   0.96200227  -0.11085772    20.958305 -4.9085207e-05 -1.7579262e-05 -0.00012519106 -4.4852948e-06      1000000 
 2310000    1.0409281  -0.07897556    20.926063 0.00019720986 0.00017114364 7.9624897e-05 0.00034086103      1000000 
 2320000   0.96693926 -0.043884689    20.949737 -0.00036555728 -0.00069873691 -2.1478122e-05 -0.00037645682      1000000 
 2330000    1.0034733 -0.075725339    21.039368 0.00030086748 0.00075096597 -1.2478186e-05 0.00016411465      1000000 
 2340000    0.9786813 -0.053776756    20.877525 0.00013158294 -1.1909354e-05 0.00016081431 0.00024584387      1000000 
 2350000   0.98031754 -0.042215368    20.962226 1.796264e-05 0.00016239749 -3.716981e-05 -7.1339759e-05      1000000 
 2360000   0.98665789 -0.065934496    20.854614 4.9553118e-05 0.0002985305 -5.808707e-05 -9.1784072e-05      1000000 
 2370000    1.0009028 -0.069536147     20.98769 0.00017786165 -0.00012456448 0.00052031808 0.00013783135      1000000 
 2380000    1.0153614 -0.068375668    20.961915 0.00028926571 0.00014764317 0.00030887576 0.00041127819      1000000 
 2390000   0.95495437 -0.056659747     20.97246 0.00010736802 0.00011476811 -8.5430083e-05 0.00029276603      1000000 
 2400000    1.0299291 -0.046286612      20.9338 -4.186855e-06 -0.00022675112 0.00030678579 -9.2595238e-05      1000000 
 2410000   0.95052368 -0.075012618     20.94058 -4.9995003e-05 6.4505004e-06 -0.00028547355 0.00012903804      1000000 
 2420000    1.0040288 -0.072271793    21.151477 -0.00023700794 -0.00027104238 -0.00025130931 -0.00018867213      1000000 
 2430000    1.0696718  -0.05836378     20.84012 -1.2835152e-06 -0.00016034705 3.662302e-05 0.00011987348      1000000 
 2440000   0.92219647 -0.056593053    21.069755 -0.0002649985 -0.00052310137 -0.00026530814 -6.5859962e-06      1000000 
 2450000    1.0513096 -0.077094526    21.062535 -9.4638914e-05 3.5258291e-05 -0.00039460642 7.5431385e-05      1000000 
 2460000    1.0201554 -0.043396586    20.955532 4.9176558e-05 0.0001045445 0.0002435491 -0.00020056392      1000000 
 2470000    1.0139378 -0.034244215    21.101281 -0.00024455673 -0.00027881326 -0.00028189463 -0.0001729623      1000000 
 2480000    1.0033588 -0.015616844    20.867585 0.00034088751 0.00032187317 0.00028520134 0.00041558801      1000000 
 2490000   0.98354663 -0.054746948    20.949317 0.00020447436 0.00031717059 4.136746e-05 0.00025488504      1000000 
 2500000    0.9892627 -0.042454346     20.93133 -0.00016849249 -5.6455685e-05 -5.7035854e-05 -0.00039198594      1000000 
 2510000   0.94861758 -0.044392795     20.92254 -0.00021262035 -0.0002988732 -0.00053379307 0.00019480521      1000000 
 2520000    0.9918041 -0.073875473    21.065694 0.0001296426 -0.00010642847 6.9140227e-05 0.00042621604      1000000 
 2530000    1.0325329 -0.057091706    20.905894 -0.00042861574 -0.00018537006 -0.00054713315 -0.00055334401      1000000 
 2540000    1.0803214 -0.061986136    20.973743 -9.1717204e-05 0.00023663498 -0.00032133344 -0.00019045316      1000000 
 2550000     0.989729 -0.054870107    21.016484 -0.0003661047 -0.00049835202 -0.00064829456 4.8332488e-05      1000000 
 2560000   0.94544195  -0.11381067    20.993583 -0.00021298242 -0.00025641807 -8.1491646e-05 -0.00030103755      1000000 
 2570000   0.94898354 -0.082953469    21.029239 -9.5477281e-05 -4.0855215e-05 -0.00011874174 -0.00012683489      1000000 
 2580000     1.010273 -0.054661985     21.04511 -0.00038960775 -0.00055965209 -0.00019864666 -0.0004105245      1000000 
 2590000   0.96298893 -0.090125474    20.887736 0.00043688529 0.00056696885 0.00041332551 0.0003303615      1000000 
 2600000    1.0948921 -0.068624963     20.95116 -9.0033962e-05 -7.8911255e-05 -0.00020041768 9.2270505e-06      1000000 
 2610000     1.059113 -0.091367735     20.90722 -1.6196987e-05 9.4786235e-05 -0.00014932736 5.9501666e-06      1000000 
 2620000    1.0113201 -0.084583565    20.951855 -5.7397183e-05 -0.00032196109 -0.00010958414 0.00025935369      1000000 
 2630000   0.98020994  -0.13322329    20.972307 2.9914871e-05 7.1976662e-05 0.00012827299 -0.00011050504      1000000 
 2640000     1.011405  -0.14443232    20.930997 -8.7410893e-05 -9.3020681e-05 7.0696025e-05 -0.00023990802      1000000 
 2650000     1.026637 -0.094928057    21.102112 -1.9024164e-05 0.00032528422 -0.00023809313 -0.00014426359      1000000 
 2660000   0.96464061 -0.089685331    20.915389 0.00023299667 0.00054958287 4.3507984e-05 0.00010589917      1000000 
 2670000   0.98592003 -0.082201329    20.877903 -8.2030792e-05 -0.00037733053 -0.00012141224 0.00025265039      1000000 
 2680000     1.036296  -0.12826557     20.96342 0.00017616126 0.00013588189 0.00012560749 0.0002669944      1000000 
 2690000    0.9636547  -0.09219122    20.918183 7.697593e-05 -7.2356926e-05 0.00011075585 0.00019252886      1000000 
 2700000   0.96515729  -0.12401588    21.038035 0.00028027734 0.00016895685 0.00029418427 0.0003776909      1000000 
 2710000    1.0018203 -0.068842799    20.953019 -0.00028369042 -0.00029854721 -0.00044252591 -0.00010999813      1000000 
 2720000   0.96655814 -0.078965824    20.928471 -0.00014830165 -0.00029559338 -4.2185825e-05 -0.00010712575      1000000 
 2730000    0.9678757  -0.12890489    20.985686 4.2587664e-05 0.00015764455 0.00021571236 -0.00024559392      1000000 
 2740000    1.0171304  -0.06922137    20.919085 -0.00026431498 -0.0005830315 -0.00018239321 -2.7520213e-05      1000000 
 2750000   0.99907624 -0.056625522     21.01631 -0.00027713949 -3.0014352e-05 -0.00038004775 -0.00042135638      1000000 
 2760000    1.0041181  -0.10587726    20.983941 -0.00017140474 -0.00036722066 -7.9468452e-06 -0.00013904671      1000000 
 2770000    1.0420412  -0.13825684    20.838552 0.00031162882 0.00030963021 0.00047042051 0.00015483574      1000000 
 2780000   0.96969726  -0.10558112    20.912007 -0.00022423239 -0.00044413735 -0.00033112827 0.00010256846      1000000 
 2790000   0.99939165  -0.04405593    20.894352 -8.2495008e-05 -0.00015586194 -1.3295527e-06 -9.0293534e-05      1000000 
 2800000   0.99187824 -0.089030467    21.033849 -6.4894195e-05 -0.000160395 9.4440293e-05 -0.00012872788      1000000 
 2810000      1.02648  -0.13158789    20.843376 -0.00016929065 7.8627985e-06 -0.00041238873 -0.00010334601      1000000 
 2820000   0.96119528 -0.079155986    20.866167 -0.00014221244 -0.00023705321 -0.00020815369 1.8569579e-05      1000000 
 2830000   0.98830992 -0.069067599    20.976022 0.00014441801 0.00037619835 7.2325323e-05 -1.5269637e-05      1000000 
 2840000    1.0502092  -0.11277201    20.873687 0.00010084368 0.00029192108 -3.5278735e-05 4.5888696e-05      1000000 
 2850000   0.98119807  -0.10349028    20.970652 -0.00023481349 -0.00047844911 -4.4386085e-05 -0.00018160529      1000000 
 2860000    1.1332857 -0.072233989    20.949111 6.3068275e-05 0.00025767146 -0.00014912294 8.0656306e-05      1000000 
 2870000    1.0788213  -0.12689461    20.940152 7.6570261e-05 0.00020716456 -1.9536464e-05 4.2082689e-05      1000000 
 2880000    1.0251336  -0.12081058    20.891152 -8.1300738e-05 5.9099665e-05 -0.00030791492 4.9130384e-06      1000000 
 2890000    1.0232289 -0.095499288    21.037622 0.0004686599 0.00074197305 0.00037511172 0.00028889493      1000000 
 2900000   0.98341209 -0.088135321    20.858148 8.3294855e-05 -0.00016699662 0.00034668077 7.0200418e-05      1000000 
 2910000   0.99041863 -0.077286179    20.939917 0.00026591999 0.00034630907 -0.00014343252 0.00059488342      1000000 
 2920000    0.9996649   -0.0897565     20.95875 7.898174e-06 5.9445266e-05 -0.0001161757 8.0424961e-05      1000000 
 2930000    1.0035808  -0.17359782    20.865737 -5.4312108e-06 -0.00015809732 8.5760762e-05 5.6042927e-05      1000000 
 2940000   0.92978001  -0.11825336    20.870133 -0.00016026979 -0.00043558537 -8.432989e-05 3.9105886e-05      1000000 
 2950000    1.0529403  -0.11607362     20.89607 -5.5824717e-05 -0.00034610201 4.809601e-05 0.00013053185      1000000 
 2960000   0.99177935  -0.12982036    20.959326 -0.00028613736 -0.00030336552 -0.00033799962 -0.00021704694      1000000 
 2970000    1.0413685  -0.12089993    20.998763 0.00016969264 0.00037422994 6.9717206e-05 6.5130777e-05      1000000 
 2980000   0.98242197 -0.086479591    20.975094 -1.2448609e-05 -4.0711286e-05 -4.8320234e-05 5.1685694e-05      1000000 
 2990000    1.0126602 -0.084680633    20.935997 -6.114334e-05 -5.3588393e-05 1.1535153e-05 -0.00014137678      1000000 
 3000000      1.01412 -0.057288485    20.950028 -8.0725007e-05 0.00013337814 -0.00017578049 -0.00019977267      1000000 
 3010000   0.95214147  -0.12402239    20.896492 -0.00018185592 -9.0892992e-05 2.1783165e-05 -0.00047645794      1000000 
 3020000   0.97436934  -0.14499824    20.909635 5.2162149e-05 -1.6570484e-05 0.00011300232 6.0054607e-05      1000000 
 3030000   0.93704168  -0.14600318    20.864826 8.5065305e-05 0.0001642994 0.0002166188 -0.00012572228      1000000 
 3040000    1.0390862  -0.15561976    20.922285 -0.00040062341 -0.00047876137 -0.00043390179 -0.00028920706      1000000 
 3050000    1.0465898  -0.18500839     20.83064 4.4401517e-06 -0.00027124271 5.2298015e-05 0.00023226515      1000000 
 3060000    1.0059657  -0.17564374    21.032727 -8.481097e-05 -0.00028875312 -3.6741802e-05 7.106201e-05      1000000 
 3070000    1.0390997  -0.17365204     20.99347 -1.1701727e-05 -0.00017737405 -0.00012310048 0.00026536934      1000000 
 3080000    1.0235103   -0.1897417    20.734254 -0.00018649088 -0.00030059261 1.934089e-06 -0.00026081413      1000000 
 3090000    1.0094751  -0.11242372    20.964546 -0.00014915993 5.3832545e-05 -0.00035645978 -0.00014485255      1000000 
 3100000   0.98106847  -0.17224224     20.87709 -0.00025751443 -0.00035537515 -0.00030043164 -0.00011673649      1000000 
 3110000   0.96444582  -0.15491272    20.910008 0.00038377226 0.00039365691 0.00014732443 0.00061033543      1000000 
 3120000   0.97786808 -0.095578125    20.879621 -0.00026875291 -0.00075759301 -7.5560473e-05 2.6894757e-05      1000000 
 3130000    1.0322295  -0.15044091    20.821395 2.5936699e-05 0.00024605808 -4.5693015e-05 -0.00012255497      1000000 
 3140000    1.0537229  -0.16039771    20.915004 -0.00031422144 -3.7606164e-05 -0.00054481894 -0.00036023921      1000000 
 3150000    1.0660744   -0.1855272    20.856452 0.00020006521 0.00038111936 0.00018923342 2.984285e-05      1000000 
 3160000   0.96797183  -0.16027519    20.886324 -9.6866573e-05 -0.00034749553 -0.00019632233 0.00025321814      1000000 
 3170000    1.0373728  -0.17901993    20.951961 6.5292124e-05 -8.7311489e-05 4.0595887e-05 0.00024259197      1000000 
 3180000   0.99084119   -0.1891319    20.882031 -3.2215001e-05 3.5581939e-05 -0.00025132805 0.0001191011      1000000 
 3190000    1.0003875  -0.15211515    20.881345 -0.00027773207 -0.00044286292 -0.00035002692 -4.0306375e-05      1000000 
 3200000    1.0730978  -0.17886077    20.853513 -0.00025586665 -0.00022886341 -0.00033710988 -0.00020162665      1000000 
 3210000    1.0721387  -0.18372143    20.909476 -0.00011869135 -0.00029094573 -9.8866659e-05 3.3738343e-05      1000000 
 3220000   0.96530782  -0.17641168    20.892461 0.00017657441 0.00044275387 0.00023518722 -0.00014821787      1000000 
 3230000    1.1213172  -0.15834494    20.938224 3.1841753e-05 -8.430674e-05 5.6503713e-05 0.00012332829      1000000 
 3240000   0.98232084  -0.14399984    20.975238 -0.00024655007 -6.5439501e-05 -0.00036052747 -0.00031368324      1000000 
 3250000    1.0496851 -0.093320964    20.860223 0.00010685929 -0.00012840495 6.8329468e-05 0.00038065335      1000000 
 3260000   0.98293493  -0.17557575    20.862257 -0.00011826336 -0.00014016491 -0.00019417633 -2.0448836e-05      1000000 
 3270000    1.0058828  -0.15575293    20.908918 0.00030797446 0.00046902464 0.00037824926 7.6649473e-05      1000000 
 3280000    1.0251863 -0.084571376    20.912387 -5.4923884e-05 -0.0002305027 6.3179356e-05 2.5516926e-06      1000000 
 3290000    0.9901509  -0.14472868    21.024671 -0.00022123811 -8.2587706e-06 -0.00055369747 -0.00010175809      1000000 
 3300000    1.0418117  -0.17280108     20.99729 -2.2628205e-05 -0.00016370963 0.00032594576 -0.00023012074      1000000 
 3310000    1.0802756  -0.15034365    20.879759 0.0001722991 -0.0001881672 0.00039492498 0.00031013953      1000000 
 3320000    1.0589932  -0.15135356    20.974996 -1.290721e-05 0.00014791484 -0.000205899 1.9262528e-05      1000000 
 3330000    1.0541516    -0.100546    21.065601 -0.00013760652 -0.00015003481 8.4318999e-05 -0.00034710376      1000000 
 3340000   0.99685207  -0.14773781    20.904881 -0.00028174528 -0.00026899091 -9.4016458e-05 -0.00048222848      1000000 
 3350000   0.93134599  -0.14764787    20.977324 -0.00021039223 -0.00022084471 -0.00023474527 -0.0001755867      1000000 
 3360000    1.0255372  -0.15447843    20.947246 -0.00023502626 5.8982102e-05 -0.0005239852 -0.00024007567      1000000 
 3370000    1.0623855  -0.16556242      20.8921 -0.00027113905 -0.00043239695 -0.00033148688 -4.9533322e-05      1000000 
 3380000     1.006592  -0.17434468    20.863637 -6.3902106e-05 -0.000318595 0.00013818517 -1.1296482e-05      1000000 
 3390000   0.98851025 -0.092760079    20.830715 6.7753946e-05 0.00031270804 -0.00038391772 0.00027447152      1000000 
 3400000   0.90647558  -0.13496676    20.943236 -0.00022688936 -0.00024866711 -9.6820089e-05 -0.00033518089      1000000 
 3410000    1.0260567 -0.083055512    20.910654 1.2975513e-05 -0.0002704512 -0.00016594372 0.00047532146      1000000 
 3420000    1.0119763   -0.1101243    20.968618 -0.00013079417 -0.00015570854 -5.4498701e-05 -0.00018217527      1000000 
 3430000    1.0390775  -0.11133791    20.971749 0.00010650064 -6.2476806e-05 0.00043309424 -5.1115522e-05      1000000 
 3440000    1.0414669  -0.08172917    21.040321 0.00026005204 -7.0942958e-05 0.0003916507 0.00045944837      1000000 
 3450000    1.0065971  -0.06604125    20.938847 -0.00041051438 -0.00041787509 -0.00043007589 -0.00038359214      1000000 
 3460000   0.99645693 -0.084081141    20.886027 -9.6525983e-05 0.00014057737 -4.2590488e-05 -0.00038756483      1000000 
 3470000   0.93393105 -0.063008822    20.879855 -0.00026579733 -0.00044593246 -0.0001965784 -0.00015488113      1000000 
 3480000   0.99978126 -0.068910794    20.864883 -0.00011173431 4.9567292e-05 -9.2038715e-05 -0.00029273151      1000000 
 3490000    0.9583789 -0.011859635    21.045263 -0.00018419612 -0.00054878908 9.7233892e-05 -0.00010103318      1000000 
 3500000    1.0476564 -0.072533781    20.918099 -2.2540968e-06 0.00010901441 -0.00019767761 8.1900905e-05      1000000 
 3510000    0.9657123  -0.05545614    21.004752 -0.0003158123 -0.00070391202 4.5732749e-05 -0.00028925762      1000000 
 3520000     1.045125 -0.070114388    20.870856 -0.00015845264 -0.00018035712 -0.00017915861 -0.00011584217      1000000 
 3530000    1.0757018 -0.072128353    20.839901 -7.7519092e-05 5.5377863e-05 -0.00010930694 -0.0001786282      1000000 
 3540000    1.0432206  -0.11771601    20.936844 0.00019320008 4.0853355e-05 0.00019398005 0.00034476683      1000000 
 3550000    1.0323218 -0.090818756    21.026566 0.00013617694 0.00036604515 0.00017952749 -0.00013704183      1000000 
 3560000    1.0523116 -0.074904586    20.959266 -5.8782305e-05 1.9679554e-05 1.3868022e-05 -0.00020989449      1000000 
 3570000      1.00053 -0.093338251    20.920869 0.00028684249 0.00036375884 0.00020746582 0.0002893028      1000000 
 3580000    1.1288307 -0.062213749    20.967498 -0.00025437926 -0.00030468264 -0.00018773228 -0.00027072286      1000000 
 3590000   0.98196364   -0.1075434    21.019353 0.00012510572 0.00035247655 8.2364749e-05 -5.9524123e-05      1000000 
 3600000   0.95843352  -0.06774019    20.880432 0.00048861546 0.00066693549 0.00034451849 0.0004543924      1000000 
 3610000   0.98814369 -0.075171981     20.93906 -0.00024838233 -0.00045089937 -0.00017501969 -0.00011922792      1000000 
 3620000    1.0408981 -0.099351299    20.898529 -0.00018750886 -0.00019733645 -0.00027208453 -9.3105615e-05      1000000 
 3630000    1.0032564 -0.039741615     21.00183 -0.00015165586 -0.00018395822 -0.00013451163 -0.00013649774      1000000 
 3640000    1.0823512 -0.087240473    20.981203 -0.0002639605 4.8012669e-05 -0.00043962664 -0.00040026753      1000000 
 3650000    1.0330024 -0.077868615    21.041749 0.0001554105 0.0003674287 -0.00011992965 0.00021873245      1000000 
 3660000      1.08173  -0.11577144    20.945099 -0.00016481762 -0.00010459962 -0.00030616792 -8.3685318e-05      1000000 
 3670000     1.038823 -0.090935174    20.944383 5.1793772e-06 -1.788751e-05 0.00010170497 -6.8279323e-05      1000000 
 3680000    1.0012194  -0.10152381    21.035647 1.5318178e-05 0.00023406809 -7.6863768e-06 -0.00018042718      1000000 
 3690000   0.98185944  -0.17417788    20.874353 -0.00022891912 -0.00030299344 -0.00038293182 -8.3210892e-07      1000000 
 3700000     0.949972   -0.1289973      20.9721 9.0688375e-05 -5.7734032e-05 -2.9286668e-06 0.00033272782      1000000 
 3710000   0.94347103 -0.043871551    21.045866 3.5754776e-05 0.00023560547 4.6652141e-05 -0.00017499328      1000000 
 3720000   0.98783094  -0.13177741    20.979254 -1.1066327e-05 0.00015535639 8.2874946e-05 -0.00027143032      1000000 
 3730000    1.0424037 -0.068421719    20.978374 0.00024611817 0.00051147847 0.00017555996 5.131608e-05      1000000 
 3740000   0.96572281  -0.07140102    20.892463 3.7011771e-05 -0.0002194333 0.00019294255 0.00013752606      1000000 
 3750000   0.98506659   -0.1196961    20.910333 0.00021316628 -9.9478616e-05 0.00054133291 0.00019764454      1000000 
 3760000    1.0156214 -0.093723121    20.979519 0.0001429272 0.0001616172 0.0002818861 -1.4721693e-05      1000000 
 3770000   0.99720344 -0.086391308    20.952038 -0.00036502913 -0.00020393956 -0.00061496129 -0.00027618654      1000000 
 3780000    0.9863932  -0.09156085    20.962148 -8.3957358e-05 8.3891676e-05 -9.7702425e-05 -0.00023806132      1000000 
 3790000   0.97390659  -0.11657226    20.901285 -0.00012135666 -5.5408292e-05 -9.7012656e-05 -0.00021164903      1000000 
 3800000    0.9469519 -0.073161879    20.923542 -7.1513322e-05 -0.00019336787 8.0380191e-05 -0.00010155229      1000000 
 3810000    0.9454753 -0.043394534    20.985738 -0.00021154379 -0.00032427512 -5.5563369e-05 -0.00025479288      1000000 
 3820000    1.0543174 -0.071545812    20.996079 -5.8914525e-05 -0.00019653398 0.00015265864 -0.00013286823      1000000 
 3830000    1.0519472 -0.049044665    20.905769 9.1674818e-05 1.7810295e-05 0.00014191036 0.00011530379      1000000 
 3840000   0.97107362 -0.048985766    20.921581 -8.7175002e-05 -6.981772e-05 2.6564293e-05 -0.00021827158      1000000 
 3850000   0.98054307 -0.025836095    20.978576 -0.00013041566 -0.00035915395   9.7001e-06 -4.1793137e-05      1000000 
 3860000    1.0077883 -0.030062711     21.06568 -0.00020008618 -0.00010186117 -0.00031151879 -0.00018687859      1000000 
 3870000   0.98216112 -0.017636865    20.963012 2.5031644e-05 -0.00012163726 -0.00036021934 0.00055695154      1000000 
 3880000    1.1137133 -0.015836464    21.035575 8.413205e-05 0.00016439516 7.3934493e-05 1.4066493e-05      1000000 
 3890000    1.0867849            0    20.914234 -3.4378022e-06 -0.00033591284 0.00015009911 0.00017550032      1000000 
 3900000   0.94423394            0    21.044562 -7.4726806e-05 4.7670866e-05 9.0443053e-05 -0.00036229434      1000000 
 3910000    1.0035888            0    21.037025 0.0001474417 0.00022853344 0.00019306914 2.072253e-05      1000000 
 3920000    1.0226663            0    20.912866 0.0002516433 0.00036357254 0.00011425159 0.00027710577      1000000 
 3930000    1.0465541            0    21.055372 0.00026492675 0.00026263598 0.0001640282 0.00036811606      1000000 
 3940000   0.97630783            0    20.956693 -0.00010992456 -9.6208723e-05 -0.00029621039 6.264543e-05      1000000 
 3950000    0.9717372            0    20.988546 -7.6476398e-05 -6.1109939e-06 -0.00032601868 0.00010270048      1000000 
 3960000    1.0168931            0    20.939469 -0.0002190579 -0.00023222957 -0.00010329896 -0.00032164517      1000000 
 3970000   0.95817526            0    20.943973 4.0013507e-05 8.5119013e-05 -2.0141825e-05 5.5063332e-05      1000000 
 3980000   0.98361264            0    21.070117 -0.00043719703 -0.00036181477 -0.00075332178 -0.00019645454      1000000 
 3990000   0.96699068            0    20.929835 4.9200653e-06 0.00014547378 -0.00030722416 0.00017651057      1000000 
 4000000    1.0594287            0    20.937245 -8.5425443e-05 -0.00029029835 -0.00032272774 0.00035674976      1000000 
 4001000    1.0479393            0    20.980389 0.00011264165 -0.00011367051 0.00027328872 0.00017830672      1000000 
Loop time of 168.46 on 1 procs for 3000000 steps with 400 atoms

Performance: 15386430.926 tau/day, 17808.369 timesteps/s
99.7% CPU use with 1 MPI tasks x no OpenMP threads

MPI task timing breakdown:
Section |  min time  |  avg time  |  max time  |%varavg| %total
---------------------------------------------------------------
Pair    | 19.037     | 19.037     | 19.037     |   0.0 | 11.30
Bond    | 56.307     | 56.307     | 56.307     |   0.0 | 33.42
Neigh   | 20.514     | 20.514     | 20.514     |   0.0 | 12.18
Comm    | 1.9938     | 1.9938     | 1.9938     |   0.0 |  1.18
Output  | 1.3048     | 1.3048     | 1.3048     |   0.0 |  0.77
Modify  | 64.529     | 64.529     | 64.529     |   0.0 | 38.31
Other   |            | 4.774      |            |       |  2.83

Nlocal:    400 ave 400 max 400 min
Histogram: 1 0 0 0 0 0 0 0 0 0
Nghost:    21 ave 21 max 21 min
Histogram: 1 0 0 0 0 0 0 0 0 0
Neighs:    808 ave 808 max 808 min
Histogram: 1 0 0 0 0 0 0 0 0 0

Total # of neighbors = 808
Ave neighs/atom = 2.02
Ave special neighs/atom = 1.99
Neighbor list builds = 75852
Dangerous builds = 0
Total wall time: 0:03:48
